"Displacements:0","Displacements:1","Displacements:2","Stress/Strain:0","Stress/Strain:1","Stress/Strain:2","Stress/Strain:3","Stress/Strain:4","Stress/Strain:5","Stress/Strain:6","Stress/Strain:7","Stress/Strain:8","Stress/Strain:9","Stress/Strain:10","Stress/Strain:11","Stress/Strain:12","Stress/Strain:13","Stress/Strain:14","Stress/Strain:15","Principal Stress:0","Principal Stress:1","Principal Stress:2","Principal Stress:3","Principal Stress:4","Principal Stress:5","Principal Stress:6","nodes:0","nodes:1","nodes:2"
0,0,1,-1.0662,-1.705,-1.8314,2.1684e-18,0,0,0.99476,0.16422,0,2.6021e-18,0,0,0.91967,1.6966e-15,0,0.91967,-1.0662,-1.705,-1.8314,1.9447e-16,-1.5342,0.71051,0.016476,0,0,0
0.019895,0,0.98161,-1.0453,-1.6648,-1.7946,0.0005857,0,0,0.97411,0.16882,0,0.0015228,0,0,0.92241,-0.0028117,0,0.92242,-1.0453,-1.6648,-1.7946,0.054174,-1.5016,0.69356,0.01513,0.02,0,0
0.038964,0,0.9631,-1.0521,-1.6255,-1.7664,0.0012934,0,0,0.92854,0.18314,0,0.0033627,0,0,0.93043,-0.0054222,0,0.93044,-1.0521,-1.6255,-1.7664,0.12924,-1.4814,0.65529,0.012231,0.04,0,0
0.057037,0,0.94439,-1.0642,-1.5768,-1.7367,0.0021185,0,0,0.87428,0.20782,0,0.005508,0,0,0.94304,-0.007583,0,0.94307,-1.0641,-1.5768,-1.7367,0.23676,-1.4592,0.60856,0.008939,0.06,0,0
0.073936,0,0.92538,-1.0809,-1.5186,-1.7052,0.0029363,0,0,0.81159,0.24267,0,0.0076343,0,0,0.9591,-0.0090226,0,0.95915,-1.0809,-1.5186,-1.7052,0.3844,-1.4349,0.55506,0.0055518,0.08,0,0
0.089501,0,0.90602,-1.1011,-1.4526,-1.6721,0.0034848,0,0,0.74235,0.28541,0,0.0090604,0,0,0.97705,-0.0095433,0,0.9771,-1.1011,-1.4526,-1.6721,0.56797,-1.4086,0.49895,0.0024735,0.1,0,0
0.10363,0,0.8863,-1.1226,-1.3834,-1.6381,0.0035732,0,0,0.67016,0.33115,0,0.0092903,0,0,0.99516,-0.0091295,0,0.9952,-1.1225,-1.3834,-1.6381,0.78487,-1.3813,0.44649,9.5184e-05,0.12,0,0
0.11631,0,0.86622,-1.1429,-1.3166,-1.6041,0.0031899,0,0,0.59953,0.37369,0,0.0082936,0,0,1.0119,-0.007965,0,1.0119,-1.1428,-1.3167,-1.6041,1.0516,-1.3545,0.40346,-0.0013864,0.14,0,0
0.12761,0,0.84583,-1.1599,-1.2573,-1.571,0.002571,0,0,0.53437,0.40783,0,0.0066846,0,0,1.026,-0.0063472,0,1.026,-1.1599,-1.2573,-1.571,1.512,-1.3294,0.37208,-0.0020463,0.16,0,0
0.13768,0,0.82518,-1.1723,-1.2078,-1.5392,0.0019575,0,0,0.47697,0.43087,0,0.0050895,0,0,1.0368,-0.0045497,0,1.0368,-1.1722,-1.2079,-1.5392,3.1503,-1.3064,0.35053,-0.0021351,0.18,0,0
0.14669,0,0.80435,-1.1795,-1.1684,-1.5087,0.0014909,0,0,0.42797,0.44241,0,0.0038764,0,0,1.0441,-0.0027363,0,1.0441,-1.1682,-1.1797,-1.5087,82.487,-1.2856,0.33491,-0.0019217,0.2,0,0
0.1548,0,0.78342,-1.1818,-1.1385,-1.4795,0.0011428,0,0,0.38704,0.44329,0,0.0029714,0,0,1.0478,-0.00095154,0,1.0478,-1.1385,-1.1818,-1.4795,88.488,-1.2666,0.32155,-0.0016035,0.22,0,0
0.16217,0,0.76244,-1.1795,-1.1172,-1.4514,0.00081164,0,0,0.35356,0.43454,0,0.0021103,0,0,1.0479,0.0008276,0,1.0479,-1.1172,-1.1795,-1.4514,89.254,-1.2494,0.30788,-0.0012943,0.24,0,0
0.16894,0,0.7415,-1.1729,-1.1038,-1.4245,0.00040313,0,0,0.32704,0.41699,0,0.0010481,0,0,1.0445,0.0026233,0,1.0445,-1.1038,-1.1729,-1.4245,89.666,-1.2337,0.29237,-0.0010452,0.26,0,0
0.17525,0,0.72067,-1.1627,-1.0976,-1.3987,-0.00010279,0,0,0.30692,0.39147,0,-0.00026727,0,0,1.0375,0.004389,0,1.0375,-1.0976,-1.1627,-1.3987,-89.909,-1.2197,0.27445,-0.00086407,0.28,0,0
0.18122,0,0.7,-1.1494,-1.0976,-1.3741,-0.00059579,0,0,0.29215,0.35943,0,-0.001549,0,0,1.0274,0.0059616,0,1.0274,-1.0976,-1.1494,-1.3741,-89.341,-1.207,0.25459,-0.00073078,0.3,0,0
0.18694,0,0.67957,-1.1342,-1.1015,-1.3503,-0.00091503,0,0,0.28086,0.32347,0,-0.0023791,0,0,1.0147,0.0070761,0,1.0148,-1.1014,-1.1343,-1.3503,-88.402,-1.1953,0.23416,-0.00061599,0.32,0,0
0.19245,0,0.65941,-1.1188,-1.1059,-1.3268,-0.00090611,0,0,0.27041,0.28721,0,-0.0023559,0,0,1.0007,0.0074579,0,1.0008,-1.1058,-1.1189,-1.3268,-86.008,-1.1839,0.21477,-0.00050243,0.34,0,0
0.19775,0,0.63954,-1.1047,-1.1076,-1.3032,-0.00058279,0,0,0.25808,0.25433,0,-0.0015153,0,0,0.98688,0.006963,0,0.98691,-1.1046,-1.1077,-1.3032,-11,-1.1718,0.1971,-0.00039294,0.36,0,0
0.20278,0,0.61994,-1.0932,-1.1043,-1.2792,-4.1985e-05,0,0,0.24181,0.22735,0,-0.00010916,0,0,0.9747,0.0056629,0,0.97472,-1.0932,-1.1043,-1.2792,-0.2163,-1.1589,0.1807,-0.00029919,0.38,0,0
0.20743,0,0.60055,-1.085,-1.0953,-1.2546,0.00056895,0,0,0.22054,0.20718,0,0.0014793,0,0,0.96547,0.0038221,0,0.96547,-1.0849,-1.0953,-1.2546,3.1599,-1.1449,0.16475,-0.00022663,0.4,0,0
0.2116,0,0.58132,-1.0803,-1.0807,-1.2296,0.0011763,0,0,0.19409,0.19359,0,0.0030584,0,0,0.9599,0.0017801,0,0.9599,-1.0793,-1.0817,-1.2296,40.312,-1.1302,0.14912,-0.00017017,0.42,0,0
0.21519,0,0.56216,-1.079,-1.0613,-1.2043,0.0017363,0,0,0.16279,0.18584,0,0.0045144,0,0,0.95815,-0.00016397,0,0.95815,-1.0611,-1.0792,-1.2043,84.459,-1.1149,0.135,-0.00011877,0.44,0,0
0.21811,0,0.54299,-1.0807,-1.0377,-1.1785,0.0022348,0,0,0.12715,0.18309,0,0.0058105,0,0,0.9599,-0.0018113,0,0.9599,-1.0375,-1.0808,-1.1785,87.035,-1.0989,0.12507,-6.1453e-05,0.46,0,0
0.22028,0,0.52376,-1.0848,-1.0104,-1.1523,0.0026488,0,0,0.087799,0.18448,0,0.0068868,0,0,0.96449,-0.003061,0,0.9645,-1.0103,-1.0849,-1.1523,87.963,-1.0825,0.12303,8.2854e-06,0.48,0,0
0.22162,0,0.50441,-1.0908,-0.98028,-1.1257,0.0029528,0,0,0.045466,0.18907,0,0.0076773,0,0,0.97116,-0.0038854,0,0.97117,-0.9802,-1.0908,-1.1257,88.47,-1.0656,0.13159,8.9862e-05,0.5,0,0
0.22209,0,0.48491,-1.098,-0.94813,-1.0987,0.0031245,0,0,0.0010182,0.19579,0,0.0081237,0,0,0.97911,-0.0043079,0,0.97912,-0.94807,-1.098,-1.0987,88.806,-1.0483,0.15032,0.00017443,0.52,0,0
0.22166,0,0.46525,-1.1058,-0.91492,-1.0715,0.0031577,0,0,-0.044589,0.20348,0,0.00821,0,0,0.9876,-0.0043873,0,0.98761,-0.91487,-1.1058,-1.0715,89.052,-1.0307,0.17628,0.00024573,0.54,0,0
0.22031,0,0.44541,-1.1135,-0.88162,-1.0439,0.0030671,0,0,-0.090408,0.21102,0,0.0079745,0,0,0.99604,-0.0042028,0,0.99605,-0.88158,-1.1135,-1.0439,89.242,-1.013,0.20616,0.00028327,0.56,0,0
0.21805,0,0.42541,-1.1206,-0.84905,-1.0163,0.0028846,0,0,-0.13562,0.21744,0,0.0074999,0,0,1.004,-0.0038376,0,1.004,-0.84902,-1.1207,-1.0163,89.391,-0.99533,0.23735,0.00026675,0.58,0,0
0.21489,0,0.40525,-1.1268,-0.81778,-0.98863,0.0026473,0,0,-0.17963,0.2221,0,0.006883,0,0,1.0111,-0.0033657,0,1.0111,-0.81776,-1.1268,-0.98863,89.509,-0.97774,0.26816,0.00018006,0.6,0,0
0.21086,0,0.38496,-1.1318,-0.78813,-0.96093,0.0023874,0,0,-0.22208,0.22463,0,0.0062072,0,0,1.0173,-0.0028436,0,1.0173,-0.78812,-1.1318,-0.96093,89.602,-0.96027,0.29762,1.3402e-05,0.62,0,0
0.206,0,0.36456,-1.1354,-0.76019,-0.93323,0.0021255,0,0,-0.26281,0.22496,0,0.0055264,0,0,1.0225,-0.0023081,0,1.0225,-0.76018,-1.1354,-0.93323,89.675,-0.94294,0.32529,-0.00023675,0.64,0,0
0.20035,0,0.34406,-1.1377,-0.73388,-0.90555,0.0018707,0,0,-0.30185,0.22317,0,0.0048637,0,0,1.0266,-0.0017785,0,1.0266,-0.73387,-1.1378,-0.90555,89.735,-0.92572,0.35108,-0.00056901,0.66,0,0
0.19393,0,0.32349,-1.1388,-0.70903,-0.87786,0.0016231,0,0,-0.33929,0.21948,0,0.00422,0,0,1.0296,-0.0012615,0,1.0296,-0.70902,-1.1388,-0.87786,89.784,-0.90858,0.37509,-0.00097883,0.68,0,0
0.18678,0,0.30288,-1.1388,-0.68543,-0.85015,0.0013784,0,0,-0.37528,0.21414,0,0.0035839,0,0,1.0316,-0.00075541,0,1.0316,-0.68542,-1.1388,-0.85015,89.826,-0.89147,0.39753,-0.0014601,0.7,0,0
0.17892,0,0.28223,-1.1378,-0.66285,-0.82242,0.0011315,0,0,-0.40998,0.20744,0,0.0029418,0,0,1.0327,-0.00025403,0,1.0327,-0.66285,-1.1378,-0.82242,89.864,-0.87435,0.41863,-0.0020064,0.72,0,0
0.17038,0,0.26157,-1.1358,-0.64104,-0.79463,0.00087861,0,0,-0.44357,0.19968,0,0.0022844,0,0,1.0327,0.00025043,0,1.0327,-0.64104,-1.1359,-0.79463,89.898,-0.85717,0.43867,-0.0026117,0.74,0,0
0.16118,0,0.24092,-1.1331,-0.61973,-0.76677,0.00061997,0,0,-0.47623,0.19115,0,0.0016119,0,0,1.0316,0.00076466,0,1.0316,-0.61973,-1.1331,-0.76677,89.931,-0.83987,0.45792,-0.0032717,0.76,0,0
0.15133,0,0.22031,-1.1297,-0.59864,-0.73881,0.0003609,0,0,-0.50818,0.18222,0,0.00093834,0,0,1.0296,0.0012914,0,1.0296,-0.59864,-1.1297,-0.73881,89.961,-0.82239,0.47671,-0.0039849,0.78,0,0
0.14085,0,0.19974,-1.1259,-0.57744,-0.71073,0.00011263,0,0,-0.53966,0.17327,0,0.00029283,0,0,1.0265,0.0018259,0,1.0265,-0.57744,-1.1259,-0.71073,89.988,-0.80468,0.4954,-0.0047539,0.8,0,0
0.12974,0,0.17925,-1.1217,-0.55577,-0.68249,-0.00010839,0,0,-0.57099,0.16474,0,-0.00028182,0,0,1.0223,0.002352,0,1.0223,-0.55577,-1.1217,-0.68249,-89.989,-0.78666,0.51443,-0.0055874,0.82,0,0
0.11801,0,0.15885,-1.1176,-0.53323,-0.65408,-0.0002837,0,0,-0.60251,0.15711,0,-0.00073761,0,0,1.0171,0.0028384,0,1.0171,-0.53323,-1.1176,-0.65408,-89.972,-0.76829,0.53425,-0.0065009,0.84,0,0
0.10564,0,0.13856,-1.1136,-0.50947,-0.62549,-0.00039814,0,0,-0.63457,0.15083,0,-0.0010352,0,0,1.0111,0.0032375,0,1.0111,-0.50947,-1.1136,-0.62549,-89.962,-0.74952,0.55531,-0.0075168,0.86,0,0
0.092627,0,0.1184,-1.1101,-0.48421,-0.5967,-0.00044619,0,0,-0.66744,0.14624,0,-0.0011601,0,0,1.0045,0.003489,0,1.0045,-0.48421,-1.1101,-0.5967,-89.959,-0.73035,0.57793,-0.0086617,0.88,0,0
0.078944,0,0.098381,-1.1072,-0.45741,-0.56776,-0.00043467,0,0,-0.70128,0.14347,0,-0.0011301,0,0,0.99767,0.0035303,0,0.99767,-0.45741,-1.1072,-0.56776,-89.962,-0.71079,0.60226,-0.0099613,0.9,0,0
0.064575,0,0.078496,-1.1049,-0.42925,-0.53875,-0.00038032,0,0,-0.73601,0.14234,0,-0.00098883,0,0,0.99101,0.0033115,0,0.99101,-0.42925,-1.1049,-0.53875,-89.968,-0.69097,0.62811,-0.011434,0.92,0,0
0.049504,0,0.058741,-1.1032,-0.4002,-0.50975,-0.00030143,0,0,-0.77143,0.14241,0,-0.00078373,0,0,0.98507,0.0028112,0,0.98507,-0.4002,-1.1032,-0.50975,-89.975,-0.67103,0.65508,-0.013088,0.94,0,0
0.033718,0,0.039094,-1.1018,-0.37083,-0.48088,-0.00021049,0,0,-0.80718,0.14306,0,-0.00054727,0,0,0.98036,0.0020473,0,0.98037,-0.37083,-1.1018,-0.48088,-89.984,-0.65117,0.68261,-0.014915,0.96,0,0
0.017216,0,0.019526,-1.1007,-0.34169,-0.45223,-0.00011087,0,0,-0.84296,0.1437,0,-0.00028826,0,0,0.97734,0.0010794,0,0.97734,-0.34169,-1.1007,-0.45223,-89.992,-0.63153,0.71018,-0.016904,0.98,0,0
0,0,0,-1.0757,-0.30286,-0.41358,-1.0915e-17,0,0,-0.86082,0.14394,0,-2.8345e-17,0,0,0.9763,-2.1684e-18,0,0.9763,-0.30286,-1.0757,-0.41358,-90,-0.5974,0.72391,-0.017957,1,0,0
0,0.0032844,1,-1.0654,-1.7072,-1.8318,0.0017706,0,0,0.99628,0.16195,0,0.0046036,0,0,0.91686,-7.1254e-16,0,0.91685,-1.0654,-1.7072,-1.8318,0.15807,-1.5348,0.71231,0.016665,0,0.02,0
0.019926,0.0033765,0.98166,-1.0446,-1.6672,-1.7952,0.0047713,0,0,0.97579,0.16641,0,0.012405,0,0,0.9197,-0.0057113,0,0.91972,-1.0446,-1.6672,-1.7952,0.43905,-1.5023,0.69554,0.015329,0.02,0.02,0
0.039031,0.0036628,0.96321,-1.0513,-1.6283,-1.7671,0.010014,0,0,0.93054,0.1804,0,0.026036,0,0,0.92804,-0.011058,0,0.92812,-1.0511,-1.6285,-1.7671,0.99391,-1.4823,0.65772,0.012454,0.04,0.02,0
0.057147,0.0041563,0.94454,-1.0633,-1.5798,-1.7375,0.015629,0,0,0.87642,0.20494,0,0.040635,0,0,0.94124,-0.015539,0,0.9414,-1.0629,-1.5803,-1.7375,1.7315,-1.4602,0.6114,0.0091746,0.06,0.02,0
0.074088,0.0048534,0.92556,-1.0803,-1.5211,-1.706,0.020768,0,0,0.81337,0.24036,0,0.053998,0,0,0.95812,-0.01854,0,0.95835,-1.0793,-1.5221,-1.706,2.6917,-1.4358,0.55791,0.005761,0.08,0.02,0
0.089682,0.0057081,0.90622,-1.1009,-1.4536,-1.6726,0.024013,0,0,0.74317,0.28463,0,0.062434,0,0,0.977,-0.019597,0,0.97725,-1.0993,-1.4553,-1.6726,3.8768,-1.409,0.50131,0.0026161,0.1,0.02,0
0.10382,0.0066229,0.88648,-1.1228,-1.3824,-1.638,0.024108,0,0,0.66978,0.33238,0,0.06268,0,0,0.99595,-0.018655,0,0.99617,-1.1206,-1.3846,-1.638,5.2621,-1.3811,0.44814,0.00016278,0.12,0.02,0
0.11647,0.0074738,0.86638,-1.1435,-1.3141,-1.6037,0.021045,0,0,0.59823,0.37639,0,0.054717,0,0,1.0132,-0.01615,0,1.0134,-1.1409,-1.3167,-1.6037,6.9279,-1.3538,0.40458,-0.0013672,0.14,0.02,0
0.12774,0.0081566,0.84595,-1.1606,-1.2543,-1.5704,0.015988,0,0,0.53276,0.41098,0,0.041569,0,0,1.0277,-0.012759,0,1.0278,-1.1579,-1.2569,-1.5704,9.4233,-1.3284,0.37296,-0.0020452,0.16,0.02,0
0.13778,0.0086174,0.82527,-1.1728,-1.205,-1.5386,0.010444,0,0,0.47556,0.43368,0,0.027156,0,0,1.0386,-0.009085,0,1.0386,-1.1697,-1.2081,-1.5386,16.479,-1.3055,0.35129,-0.002137,0.18,0.02,0
0.14677,0.0088482,0.80441,-1.1798,-1.1661,-1.5082,0.0053203,0,0,0.42691,0.44468,0,0.013833,0,0,1.0459,-0.0054464,0,1.0459,-1.1643,-1.1816,-1.5082,71.047,-1.2847,0.33556,-0.0019232,0.2,0.02,0
0.15486,0.0088658,0.78344,-1.1819,-1.1365,-1.479,0.00081482,0,0,0.38615,0.44519,0,0.0021185,0,0,1.0496,-0.0019005,0,1.0496,-1.1365,-1.182,-1.479,88.972,-1.2658,0.32216,-0.0016027,0.22,0.02,0
0.16221,0.0086907,0.76243,-1.1797,-1.1152,-1.4509,-0.0033138,0,0,0.3526,0.43637,0,-0.0086158,0,0,1.0497,0.0016349,0,1.0497,-1.1151,-1.1798,-1.4509,-87.064,-1.2486,0.30859,-0.0012879,0.24,0.02,0
0.16896,0.0083397,0.74145,-1.1733,-1.1017,-1.424,-0.0073212,0,0,0.32585,0.4189,0,-0.019035,0,0,1.0462,0.0052395,0,1.0462,-1.101,-1.1741,-1.424,-84.219,-1.233,0.29335,-0.0010304,0.26,0.02,0
0.17525,0.0078294,0.72058,-1.1631,-1.0957,-1.3982,-0.011131,0,0,0.30562,0.39332,0,-0.02894,0,0,1.0392,0.0088503,0,1.0392,-1.0939,-1.1649,-1.3982,-80.87,-1.219,0.27577,-0.00084097,0.28,0.02,0
0.18119,0.0071887,0.69988,-1.1497,-1.0962,-1.3737,-0.014216,0,0,0.2911,0.36073,0,-0.036962,0,0,1.0287,0.012148,0,1.0288,-1.0926,-1.1533,-1.3737,-76.02,-1.2065,0.25614,-0.00070274,0.3,0.02,0
0.18689,0.0064693,0.67943,-1.1343,-1.1011,-1.3501,-0.015739,0,0,0.28045,0.32364,0,-0.040921,0,0,1.0155,0.014543,0,1.0156,-1.0948,-1.1406,-1.3501,-68.27,-1.1952,0.2357,-0.00058796,0.32,0.02,0
0.19241,0.0057441,0.65926,-1.1185,-1.1068,-1.3269,-0.015187,0,0,0.27084,0.28607,0,-0.039485,0,0,1.0007,0.0154,0,1.0008,-1.0964,-1.1289,-1.3269,-55.546,-1.1841,0.21604,-0.00047851,0.34,0.02,0
0.19772,0.0050867,0.6394,-1.104,-1.1093,-1.3034,-0.012731,0,0,0.25921,0.25229,0,-0.033101,0,0,0.98598,0.014366,0,0.98612,-1.0937,-1.1197,-1.3034,-39.096,-1.1723,0.19801,-0.00037566,0.36,0.02,0
0.20278,0.004547,0.61982,-1.0922,-1.1063,-1.2794,-0.009194,0,0,0.24331,0.225,0,-0.023904,0,0,0.97313,0.011609,0,0.97322,-1.0877,-1.1108,-1.2794,-26.274,-1.1593,0.18123,-0.00028894,0.38,0.02,0
0.20746,0.0041436,0.60047,-1.0839,-1.0972,-1.2548,-0.005369,0,0,0.22212,0.20492,0,-0.013959,0,0,0.96352,0.0077319,0,0.96356,-1.082,-1.0991,-1.2548,-19.528,-1.1453,0.16491,-0.00022206,0.4,0.02,0
0.21166,0.0038718,0.58128,-1.0794,-1.0824,-1.2298,-0.0017589,0,0,0.19561,0.19159,0,-0.0045731,0,0,0.95791,0.0034909,0,0.95791,-1.0785,-1.0832,-1.2298,-24.334,-1.1305,0.14898,-0.00016926,0.42,0.02,0
0.21528,0.0037168,0.56216,-1.0782,-1.0628,-1.2045,0.0014618,0,0,0.16417,0.18413,0,0.0038006,0,0,0.95636,-0.00049355,0,0.95635,-1.0627,-1.0783,-1.2045,84.611,-1.1152,0.13464,-0.00011969,0.44,0.02,0
0.21823,0.0036618,0.54303,-1.08,-1.0389,-1.1787,0.004229,0,0,0.12834,0.1817,0,0.010995,0,0,0.95845,-0.0038329,0,0.95846,-1.0385,-1.0804,-1.1787,84.178,-1.0992,0.12465,-6.2883e-05,0.46,0.02,0
0.22041,0.0036896,0.52382,-1.0843,-1.0114,-1.1525,0.0064821,0,0,0.088733,0.18344,0,0.016854,0,0,0.96346,-0.0063428,0,0.96348,-1.0108,-1.0848,-1.1525,84.955,-1.0827,0.12274,7.3241e-06,0.48,0.02,0
0.22178,0.0037814,0.50449,-1.0905,-0.98095,-1.1259,0.0081242,0,0,0.046085,0.18845,0,0.021123,0,0,0.97054,-0.0079776,0,0.97058,-0.98035,-1.0911,-1.1259,85.78,-1.0658,0.13165,9.0075e-05,0.5,0.02,0
0.22226,0.0039158,0.485,-1.0979,-0.94841,-1.0989,0.0090645,0,0,0.0012845,0.19563,0,0.023568,0,0,0.97886,-0.0087907,0,0.97891,-0.94786,-1.0984,-1.0989,86.543,-1.0484,0.15081,0.00017617,0.52,0.02,0
0.22183,0.0040697,0.46533,-1.1059,-0.91482,-1.0716,0.0092779,0,0,-0.044663,0.20375,0,0.024122,0,0,0.98765,-0.0089072,0,0.98771,-0.91438,-1.1064,-1.0716,87.227,-1.0308,0.17717,0.00024886,0.54,0.02,0
0.22047,0.0042204,0.44549,-1.1138,-0.88122,-1.044,0.0088392,0,0,-0.090763,0.21162,0,0.022982,0,0,0.99632,-0.008494,0,0.99636,-0.88089,-1.1142,-1.044,87.827,-1.013,0.2073,0.00028716,0.56,0.02,0
0.2182,0.0043488,0.42548,-1.1211,-0.84845,-1.0164,0.0079075,0,0,-0.13617,0.21826,0,0.020559,0,0,1.0044,-0.0077251,0,1.0044,-0.84822,-1.1213,-1.0164,88.34,-0.9953,0.23861,0.00027051,0.58,0.02,0
0.21502,0.0044419,0.40532,-1.1273,-0.8171,-0.98864,0.0066767,0,0,-0.18028,0.22301,0,0.017359,0,0,1.0116,-0.006753,0,1.0117,-0.81695,-1.1275,-0.98864,88.768,-0.97769,0.26941,0.00018288,0.6,0.02,0
0.21099,0.0044926,0.38502,-1.1323,-0.78744,-0.96093,0.0053223,0,0,-0.22276,0.22554,0,0.013838,0,0,1.0179,-0.005691,0,1.0179,-0.78736,-1.1324,-0.96093,89.116,-0.96022,0.29879,1.4755e-05,0.62,0.02,0
0.20611,0.0044991,0.3646,-1.1359,-0.75953,-0.93324,0.0039708,0,0,-0.26349,0.22582,0,0.010324,0,0,1.023,-0.0046111,0,1.023,-0.75948,-1.136,-0.93324,89.396,-0.94289,0.32636,-0.0002371,0.64,0.02,0
0.20045,0.0044634,0.3441,-1.1382,-0.73327,-0.90555,0.0026945,0,0,-0.3025,0.22397,0,0.0070056,0,0,1.0271,-0.0035494,0,1.0271,-0.73325,-1.1383,-0.90555,89.619,-0.92569,0.35205,-0.00057117,0.66,0.02,0
0.19401,0.0043896,0.32352,-1.1394,-0.70847,-0.87787,0.001523,0,0,-0.33993,0.22021,0,0.0039599,0,0,1.0301,-0.0025168,0,1.0301,-0.70847,-1.1394,-0.87787,89.797,-0.90856,0.37599,-0.00098292,0.68,0.02,0
0.18685,0.0042829,0.30289,-1.1393,-0.68493,-0.85017,0.00046112,0,0,-0.37592,0.21482,0,0.0011989,0,0,1.0321,-0.0015082,0,1.0321,-0.68493,-1.1393,-0.85017,89.942,-0.89148,0.39838,-0.0014663,0.7,0.02,0
0.17898,0.0041489,0.28223,-1.1383,-0.6624,-0.82245,-0.00049601,0,0,-0.41063,0.20807,0,-0.0012896,0,0,1.0332,-0.00050976,0,1.0332,-0.6624,-1.1383,-0.82245,-89.94,-0.87439,0.41946,-0.002015,0.72,0.02,0
0.17042,0.0039935,0.26156,-1.1364,-0.64063,-0.79467,-0.0013504,0,0,-0.44424,0.20025,0,-0.0035111,0,0,1.0332,0.00049537,0,1.0332,-0.64063,-1.1364,-0.79467,-89.844,-0.85723,0.43948,-0.0026229,0.74,0.02,0
0.16121,0.0038231,0.24091,-1.1337,-0.61938,-0.76682,-0.0020933,0,0,-0.47691,0.19167,0,-0.0054426,0,0,1.0321,0.0015219,0,1.0321,-0.61938,-1.1337,-0.76682,-89.767,-0.83996,0.45872,-0.0032855,0.76,0.02,0
0.15135,0.0036444,0.22028,-1.1303,-0.59836,-0.73887,-0.0027001,0,0,-0.50884,0.18266,0,-0.0070202,0,0,1.0301,0.002577,0,1.0301,-0.59835,-1.1303,-0.73887,-89.709,-0.82251,0.47746,-0.0040009,0.78,0.02,0
0.14086,0.0034654,0.1997,-1.1264,-0.57726,-0.7108,-0.0031302,0,0,-0.54027,0.1736,0,-0.0081385,0,0,1.027,0.0036534,0,1.027,-0.57724,-1.1264,-0.7108,-89.673,-0.80482,0.49606,-0.0047709,0.8,0.02,0
0.12974,0.0032948,0.1792,-1.1222,-0.55571,-0.68257,-0.003334,0,0,-0.5715,0.16492,0,-0.0086684,0,0,1.0228,0.0047209,0,1.0228,-0.55569,-1.1222,-0.68257,-89.663,-0.78682,0.51494,-0.0056034,0.82,0.02,0
0.11799,0.0031421,0.15879,-1.1179,-0.53332,-0.65416,-0.00327,0,0,-0.60289,0.1571,0,-0.0085019,0,0,1.0176,0.005718,0,1.0176,-0.5333,-1.1179,-0.65416,-89.68,-0.76847,0.53456,-0.0065135,0.84,0.02,0
0.10562,0.0030165,0.1385,-1.1139,-0.5097,-0.62556,-0.00293,0,0,-0.63478,0.15062,0,-0.007618,0,0,1.0115,0.006548,0,1.0115,-0.50969,-1.1139,-0.62556,-89.722,-0.74971,0.55539,-0.0075236,0.86,0.02,0
0.092603,0.0029248,0.11833,-1.1102,-0.48455,-0.59676,-0.002363,0,0,-0.66749,0.14588,0,-0.0061438,0,0,1.0047,0.0070851,0,1.0047,-0.48454,-1.1102,-0.59676,-89.784,-0.73051,0.57781,-0.0086613,0.88,0.02,0
0.078922,0.0028694,0.09831,-1.1072,-0.45778,-0.5678,-0.0016796,0,0,-0.70119,0.14302,0,-0.0043669,0,0,0.99758,0.0071958,0,0.99761,-0.45777,-1.1072,-0.5678,-89.852,-0.71091,0.60198,-0.0099542,0.9,0.02,0
0.064556,0.0028468,0.07843,-1.1048,-0.42957,-0.53873,-0.001023,0,0,-0.73584,0.14191,0,-0.0026598,0,0,0.99065,0.0067709,0,0.99068,-0.42957,-1.1048,-0.53873,-89.913,-0.69102,0.62777,-0.011422,0.92,0.02,0
0.049488,0.0028482,0.058684,-1.1029,-0.40042,-0.50969,-0.00051614,0,0,-0.77121,0.14205,0,-0.001342,0,0,0.98443,0.0057616,0,0.98445,-0.40042,-1.1029,-0.50969,-89.958,-0.67101,0.65475,-0.013073,0.94,0.02,0
0.033707,0.0028612,0.039053,-1.1015,-0.37094,-0.48079,-0.00021103,0,0,-0.80693,0.1428,0,-0.00054868,0,0,0.9795,0.0042028,0,0.97951,-0.37094,-1.1015,-0.48079,-89.983,-0.65107,0.6823,-0.014899,0.96,0.02,0
0.017211,0.002874,0.019504,-1.1003,-0.34173,-0.45213,-7.3106e-05,0,0,-0.84269,0.14352,0,-0.00019007,0,0,0.97632,0.0022177,0,0.97632,-0.34173,-1.1003,-0.45213,-89.995,-0.6314,0.70989,-0.016885,0.98,0.02,0
0,0.0028789,0,-1.0755,-0.30291,-0.41351,9.2626e-05,0,0,-0.86053,0.14378,0,0.00024083,0,0,0.97522,-1.2143e-17,0,0.97522,-0.30291,-1.0755,-0.41351,89.993,-0.59729,0.72362,-0.017937,1,0.02,0
0,0.0064779,1,-1.0633,-1.7136,-1.8331,0.0034339,0,0,1.0007,0.15536,0,0.0089281,0,0,0.90824,-2.04e-15,0,0.90823,-1.0633,-1.7136,-1.8331,0.30257,-1.5367,0.71751,0.017211,0,0.04,0
0.020013,0.0066564,0.98184,-1.0426,-1.6743,-1.7969,0.0092224,0,0,0.98065,0.15936,0,0.023978,0,0,0.91135,-0.011713,0,0.91142,-1.0424,-1.6744,-1.7969,0.83616,-1.5046,0.70132,0.015911,0.02,0.04,0
0.039226,0.007216,0.96355,-1.0489,-1.6367,-1.7692,0.019606,0,0,0.93647,0.17227,0,0.050974,0,0,0.9206,-0.022919,0,0.9209,-1.0482,-1.6374,-1.7692,1.9081,-1.4849,0.66496,0.013122,0.04,0.04,0
0.057472,0.0081978,0.94501,-1.0609,-1.5892,-1.74,0.031149,0,0,0.88295,0.19604,0,0.080987,0,0,0.93556,-0.032585,0,0.93617,-1.059,-1.5911,-1.74,3.3621,-1.4634,0.62011,0.0099049,0.06,0.04,0
0.074544,0.0096144,0.92612,-1.0785,-1.5293,-1.7085,0.042291,0,0,0.81892,0.23291,0,0.10996,0,0,0.95505,-0.039207,0,0.95591,-1.0746,-1.5333,-1.7085,5.3136,-1.4388,0.56695,0.0064335,0.08,0.04,0
0.090229,0.011385,0.90681,-1.1005,-1.4571,-1.6741,0.049453,0,0,0.74568,0.2821,0,0.12858,0,0,0.97694,-0.041393,0,0.97788,-1.0937,-1.4638,-1.6741,7.751,-1.4105,0.50889,0.0030832,0.1,0.04,0
0.10437,0.013295,0.88705,-1.1237,-1.3789,-1.6378,0.049529,0,0,0.66834,0.33662,0,0.12878,0,0,0.99861,-0.038981,0,0.99943,-1.1144,-1.3882,-1.6378,10.608,-1.3801,0.45342,0.00038069,0.12,0.04,0
0.11696,0.015056,0.86686,-1.1453,-1.3059,-1.6022,0.042357,0,0,0.59397,0.38525,0,0.11013,0,0,1.0177,-0.033121,0,1.0183,-1.1348,-1.3164,-1.6022,13.909,-1.3511,0.40812,-0.0013096,0.14,0.04,0
0.12813,0.016439,0.84634,-1.1626,-1.245,-1.5686,0.031378,0,0,0.52786,0.42066,0,0.081582,0,0,1.033,-0.02568,0,1.0334,-1.152,-1.2556,-1.5686,18.637,-1.3254,0.37569,-0.002041,0.16,0.04,0
0.13808,0.017347,0.82554,-1.1741,-1.1969,-1.5368,0.020025,0,0,0.47161,0.44189,0,0.052066,0,0,1.0441,-0.018034,0,1.0443,-1.1624,-1.2086,-1.5368,30.14,-1.3026,0.35361,-0.0021412,0.18,0.04,0
0.14699,0.017787,0.80457,-1.1802,-1.1596,-1.5065,0.010127,0,0,0.42416,0.45103,0,0.026331,0,0,1.0513,-0.010761,0,1.0513,-1.1554,-1.1844,-1.5065,67.787,-1.2821,0.33754,-0.0019263,0.2,0.04,0
0.15504,0.017808,0.78349,-1.182,-1.1308,-1.4773,0.0016606,0,0,0.38395,0.45048,0,0.0043175,0,0,1.0549,-0.0037914,0,1.0549,-1.1308,-1.1821,-1.4773,88.143,-1.2634,0.32399,-0.0016002,0.22,0.04,0
0.16235,0.017455,0.76238,-1.1801,-1.1096,-1.4493,-0.0061239,0,0,0.35,0.44155,0,-0.015922,0,0,1.055,0.0031599,0,1.055,-1.1091,-1.1806,-1.4493,-85.067,-1.2463,0.31067,-0.0012695,0.24,0.04,0
0.16904,0.016756,0.74129,-1.1743,-1.0957,-1.4223,-0.013946,0,0,0.32234,0.42461,0,-0.036258,0,0,1.0517,0.010372,0,1.0517,-1.0933,-1.1767,-1.4223,-80.24,-1.2308,0.29624,-0.00098651,0.26,0.04,0
0.17525,0.015733,0.72031,-1.1647,-1.0895,-1.3965,-0.021891,0,0,0.30146,0.3992,0,-0.056915,0,0,1.0444,0.017899,0,1.0446,-1.0836,-1.1706,-1.3965,-74.894,-1.2169,0.27982,-0.00076941,0.28,0.04,0
0.1811,0.014429,0.69951,-1.1511,-1.0913,-1.3722,-0.028758,0,0,0.28751,0.36522,0,-0.07477,0,0,1.0331,0.025145,0,1.0334,-1.0797,-1.1626,-1.3722,-68.052,-1.2048,0.26112,-0.00061301,0.3,0.04,0
0.18675,0.012946,0.67899,-1.1348,-1.0997,-1.3494,-0.03256,0,0,0.2789,0.32452,0,-0.084657,0,0,1.018,0.030743,0,1.0185,-1.0803,-1.1542,-1.3494,-59.16,-1.1946,0.24076,-0.00049527,0.32,0.04,0
0.19226,0.011443,0.6588,-1.1178,-1.1097,-1.3271,-0.031524,0,0,0.27204,0.28252,0,-0.081962,0,0,1.0006,0.032905,0,1.0011,-1.082,-1.1455,-1.3271,-48.644,-1.1848,0.22028,-0.00039881,0.34,0.04,0
0.19763,0.010091,0.63897,-1.102,-1.115,-1.304,-0.026243,0,0,0.26267,0.24582,0,-0.068231,0,0,0.98309,0.030645,0,0.98361,-1.0815,-1.1355,-1.304,-38.062,-1.1737,0.2011,-0.00031814,0.36,0.04,0
0.20276,0.0089998,0.61947,-1.0894,-1.1126,-1.2801,-0.018624,0,0,0.2479,0.21767,0,-0.048423,0,0,0.96807,0.024369,0,0.9684,-1.0791,-1.123,-1.2801,-29.01,-1.1607,0.18306,-0.000255,0.38,0.04,0
0.20754,0.0081968,0.60024,-1.0808,-1.1031,-1.2554,-0.010697,0,0,0.22697,0.19805,0,-0.027811,0,0,0.95735,0.015759,0,0.95748,-1.0765,-1.1074,-1.2554,-21.94,-1.1464,0.16564,-0.00020635,0.4,0.04,0
0.21184,0.0076636,0.58118,-1.0764,-1.0877,-1.2304,-0.0033271,0,0,0.20022,0.18553,0,-0.0086504,0,0,0.95167,0.0066274,0,0.95169,-1.0755,-1.0886,-1.2304,-15.243,-1.1315,0.1488,-0.00016479,0.42,0.04,0
0.21555,0.0073653,0.56218,-1.0755,-1.0674,-1.205,0.0031884,0,0,0.16837,0.17897,0,0.0082899,0,0,0.95083,-0.0016969,0,0.95082,-1.0663,-1.0766,-1.205,70.984,-1.116,0.13389,-0.0001208,0.44,0.04,0
0.21858,0.0072679,0.54314,-1.0778,-1.0428,-1.1793,0.0088096,0,0,0.13197,0.17746,0,0.022905,0,0,0.95405,-0.0085369,0,0.95408,-1.0408,-1.0799,-1.1793,76.638,-1.1,0.12375,-6.5459e-05,0.46,0.04,0
0.22083,0.0073378,0.52401,-1.0827,-1.0145,-1.1532,0.01341,0,0,0.091589,0.18029,0,0.034867,0,0,0.96035,-0.013593,0,0.96045,-1.0119,-1.0853,-1.1532,79.271,-1.0835,0.12234,6.227e-06,0.48,0.04,0
0.22224,0.0075381,0.50473,-1.0896,-0.98297,-1.1265,0.016765,0,0,0.047961,0.1866,0,0.043588,0,0,0.96872,-0.016802,0,0.96887,-0.9804,-1.0922,-1.1265,81.273,-1.0664,0.13233,9.257e-05,0.5,0.04,0
0.22275,0.0078252,0.48527,-1.0978,-0.94922,-1.0994,0.018645,0,0,0.0020613,0.19519,0,0.048478,0,0,0.97818,-0.018293,0,0.97836,-0.94692,-1.1001,-1.0994,82.954,-1.0488,0.15281,0.00018325,0.52,0.04,0
0.22232,0.0081501,0.4656,-1.1064,-0.91446,-1.0719,0.018989,0,0,-0.044945,0.20464,0,0.04937,0,0,0.9879,-0.018346,0,0.98808,-0.9126,-1.1083,-1.0719,84.405,-1.0309,0.18027,0.00025995,0.54,0.04,0
0.22095,0.0084649,0.44575,-1.1149,-0.87994,-1.0442,0.017969,0,0,-0.091897,0.21354,0,0.04672,0,0,0.99723,-0.017334,0,0.99739,-0.87857,-1.1162,-1.0442,85.652,-1.013,0.21109,0.00030017,0.56,0.04,0
0.21865,0.0087304,0.42572,-1.1225,-0.84659,-1.0164,0.015957,0,0,-0.13786,0.2208,0,0.041489,0,0,1.0057,-0.015639,0,1.0059,-0.84567,-1.1234,-1.0164,86.701,-0.99517,0.24263,0.00028267,0.58,0.04,0
0.21544,0.0089203,0.40552,-1.1289,-0.815,-0.98868,0.013382,0,0,-0.18224,0.22579,0,0.034794,0,0,1.0132,-0.013581,0,1.0133,-0.81443,-1.1294,-0.98868,87.563,-0.97752,0.27332,0.0001918,0.6,0.04,0
0.21136,0.0090218,0.38519,-1.1339,-0.78533,-0.96095,0.010614,0,0,-0.22479,0.22829,0,0.027596,0,0,1.0195,-0.011388,0,1.0195,-0.78501,-1.1342,-0.96095,88.257,-0.96005,0.30239,1.9004e-05,0.62,0.04,0
0.20645,0.0090329,0.36474,-1.1375,-0.75755,-0.93324,0.007898,0,0,-0.26548,0.2284,0,0.020535,0,0,1.0246,-0.0091955,0,1.0247,-0.75738,-1.1376,-0.93324,88.81,-0.94275,0.3296,-0.0002381,0.64,0.04,0
0.20074,0.0089587,0.3442,-1.1397,-0.73146,-0.90556,0.0053631,0,0,-0.30443,0.22633,0,0.013944,0,0,1.0287,-0.0070645,0,1.0287,-0.73139,-1.1398,-0.90556,89.248,-0.92559,0.35498,-0.00057762,0.66,0.04,0
0.19427,0.0088084,0.3236,-1.1408,-0.70684,-0.8779,0.0030513,0,0,-0.34182,0.22237,0,0.0079335,0,0,1.0317,-0.005007,0,1.0317,-0.70682,-1.1408,-0.8779,89.597,-0.90852,0.37868,-0.00099514,0.68,0.04,0
0.18707,0.0085926,0.30294,-1.1408,-0.68345,-0.85023,0.0009587,0,0,-0.37781,0.21681,0,0.0024926,0,0,1.0336,-0.0030054,0,1.0336,-0.68345,-1.1408,-0.85023,89.88,-0.89151,0.40093,-0.0014849,0.7,0.04,0
0.17916,0.0083226,0.28225,-1.1399,-0.66106,-0.82253,-0.00093358,0,0,-0.41257,0.20992,0,-0.0024273,0,0,1.0347,-0.0010268,0,1.0347,-0.66105,-1.1399,-0.82253,-89.888,-0.87449,0.42195,-0.0020408,0.72,0.04,0
0.17056,0.00801,0.26155,-1.1381,-0.63942,-0.79479,-0.0026367,0,0,-0.44623,0.20198,0,-0.0068555,0,0,1.0347,0.00096701,0,1.0347,-0.63941,-1.1381,-0.79479,-89.697,-0.85742,0.44194,-0.0026568,0.74,0.04,0
0.16131,0.0076669,0.24086,-1.1354,-0.61832,-0.76698,-0.0041392,0,0,-0.47894,0.19325,0,-0.010762,0,0,1.0337,0.0030106,0,1.0337,-0.61829,-1.1354,-0.76698,-89.541,-0.84023,0.46114,-0.0033277,0.76,0.04,0
0.15141,0.0073066,0.2202,-1.132,-0.5975,-0.73906,-0.0053966,0,0,-0.51086,0.18403,0,-0.014031,0,0,1.0317,0.0051251,0,1.0317,-0.59744,-1.1321,-0.73906,-89.422,-0.82286,0.47977,-0.0040502,0.78,0.04,0
0.14087,0.006944,0.19959,-1.1281,-0.57666,-0.71101,-0.0063286,0,0,-0.54217,0.17465,0,-0.016454,0,0,1.0286,0.0073049,0,1.0286,-0.57659,-1.1281,-0.71101,-89.343,-0.80525,0.49813,-0.004824,0.8,0.04,0
0.12972,0.0065967,0.17906,-1.1237,-0.55548,-0.68281,-0.0068276,0,0,-0.57314,0.16552,0,-0.017752,0,0,1.0244,0.0094993,0,1.0244,-0.5554,-1.1238,-0.68281,-89.312,-0.78732,0.51658,-0.0056545,0.82,0.04,0
0.11795,0.0062839,0.15862,-1.1191,-0.53354,-0.65441,-0.0067904,0,0,-0.60411,0.15714,0,-0.017655,0,0,1.019,0.011592,0,1.019,-0.53346,-1.1192,-0.65441,-89.336,-0.76902,0.5356,-0.0065547,0.84,0.04,0
0.10555,0.0060249,0.1383,-1.1146,-0.51038,-0.62581,-0.0061721,0,0,-0.63549,0.15006,0,-0.016047,0,0,1.0125,0.013384,0,1.0126,-0.51031,-1.1147,-0.62581,-89.415,-0.75028,0.55572,-0.007547,0.86,0.04,0
0.092528,0.0058351,0.11812,-1.1106,-0.48558,-0.59696,-0.0050493,0,0,-0.66768,0.1448,0,-0.013128,0,0,1.0052,0.014605,0,1.0053,-0.48554,-1.1106,-0.59696,-89.537,-0.73103,0.57747,-0.0086622,0.88,0.04,0
0.078848,0.005721,0.098093,-1.1071,-0.45892,-0.56789,-0.0036425,0,0,-0.70094,0.14166,0,-0.0094706,0,0,0.99735,0.014948,0,0.99748,-0.4589,-1.1071,-0.56789,-89.678,-0.7113,0.60116,-0.0099331,0.9,0.04,0
0.06449,0.0056763,0.078226,-1.1043,-0.43057,-0.53869,-0.0022642,0,0,-0.7353,0.14055,0,-0.0058868,0,0,0.98957,0.014157,0,0.98968,-0.43056,-1.1043,-0.53869,-89.808,-0.69118,0.62672,-0.011385,0.92,0.04,0
0.049436,0.005682,0.05851,-1.1022,-0.40109,-0.50949,-0.0011867,0,0,-0.77049,0.14092,0,-0.0030854,0,0,0.9825,0.012105,0,0.98258,-0.40108,-1.1022,-0.50949,-89.903,-0.67092,0.65367,-0.013025,0.94,0.04,0
0.03367,0.005712,0.038926,-1.1006,-0.37128,-0.48048,-0.00052535,0,0,-0.80611,0.14196,0,-0.0013659,0,0,0.97682,0.0088571,0,0.97686,-0.37128,-1.1006,-0.48048,-89.959,-0.65077,0.68128,-0.014844,0.96,0.04,0
0.017191,0.0057407,0.019437,-1.0993,-0.34187,-0.45179,-0.00020104,0,0,-0.84176,0.14289,0,-0.00052269,0,0,0.97314,0.0046814,0,0.97315,-0.34187,-1.0993,-0.45179,-89.985,-0.63099,0.70889,-0.016823,0.98,0.04,0
0,0.0057514,0,-1.0745,-0.30309,-0.41327,0.00020541,0,0,-0.85956,0.14323,0,0.00053407,0,0,0.97186,4.3368e-18,0,0.97186,-0.30309,-1.0745,-0.41327,89.985,-0.59694,0.72262,-0.01787,1,0.04,0
0,0.0094988,1,-1.0603,-1.7237,-1.8352,0.0048453,0,0,1.0073,0.14497,0,0.012598,0,0,0.89343,1.301e-17,0,0.8934,-1.0603,-1.7237,-1.8352,0.41847,-1.5397,0.72562,0.01807,0,0.06,0
0.020147,0.0097508,0.98213,-1.0395,-1.6856,-1.7997,0.013104,0,0,0.98823,0.14826,0,0.034069,0,0,0.89678,-0.018039,0,0.89694,-1.0392,-1.6859,-1.7997,1.1613,-1.5083,0.71042,0.016834,0.02,0.06,0
0.039529,0.010554,0.96413,-1.0451,-1.6505,-1.7728,0.028242,0,0,0.94604,0.15897,0,0.07343,0,0,0.90717,-0.035976,0,0.90788,-1.0438,-1.6519,-1.7728,2.665,-1.4895,0.67671,0.014217,0.04,0.06,0
0.057988,0.011998,0.94585,-1.0567,-1.6057,-1.7446,0.046352,0,0,0.89425,0.18052,0,0.12052,0,0,0.92496,-0.05273,0,0.9265,-1.0528,-1.6096,-1.7446,4.7921,-1.469,0.63513,0.011182,0.06,0.06,0
0.075299,0.01417,0.92713,-1.076,-1.5457,-1.7136,0.065156,0,0,0.8289,0.21837,0,0.16941,0,0,0.94932,-0.064714,0,0.95162,-1.0671,-1.5545,-1.7136,7.7538,-1.4451,0.58344,0.0077007,0.08,0.06,0
0.091145,0.016992,0.90787,-1.1003,-1.4641,-1.6772,0.078438,0,0,0.74991,0.27706,0,0.20394,0,0,0.97722,-0.068557,0,0.97974,-1.0841,-1.4803,-1.6772,11.665,-1.4139,0.52316,0.0039972,0.1,0.06,0
0.1053,0.020088,0.88804,-1.1255,-1.3705,-1.6368,0.07755,0,0,0.66474,0.34623,0,0.20163,0,0,1.0042,-0.062894,0,1.0063,-1.103,-1.393,-1.6368,16.168,-1.3776,0.46288,0.00075883,0.12,0.06,0
0.11773,0.022884,0.8677,-1.1487,-1.2894,-1.5992,0.063828,0,0,0.58551,0.40268,0,0.16595,0,0,1.0266,-0.05148,0,1.0279,-1.1241,-1.314,-1.5992,21.115,-1.3458,0.41414,-0.0012354,0.14,0.06,0
0.12872,0.024983,0.84698,-1.1656,-1.2288,-1.5653,0.044757,0,0,0.5196,0.43745,0,0.11637,0,0,1.0428,-0.038371,0,1.0435,-1.1424,-1.252,-1.5653,27.389,-1.3199,0.38013,-0.0020509,0.16,0.06,0
0.13852,0.026293,0.82599,-1.1755,-1.1845,-1.534,0.027685,0,0,0.46609,0.45432,0,0.07198,0,0,1.0535,-0.026446,0,1.0538,-1.1519,-1.208,-1.534,40.358,-1.298,0.35732,-0.0021498,0.18,0.06,0
0.14736,0.026889,0.80484,-1.1797,-1.1497,-1.5036,0.013985,0,0,0.42118,0.46015,0,0.03636,0,0,1.0601,-0.01572,0,1.0602,-1.1442,-1.1852,-1.5036,68.494,-1.2777,0.34083,-0.0019345,0.2,0.06,0
0.15537,0.026885,0.78359,-1.1809,-1.1222,-1.4745,0.0027083,0,0,0.3817,0.45799,0,0.0070417,0,0,1.0635,-0.0056657,0,1.0635,-1.1221,-1.181,-1.4745,87.364,-1.2592,0.32697,-0.0016004,0.22,0.06,0
0.16263,0.026353,0.7623,-1.1798,-1.1011,-1.4466,-0.0077469,0,0,0.34675,0.44917,0,-0.020142,0,0,1.0638,0.0043679,0,1.0638,-1.1003,-1.1806,-1.4466,-84.437,-1.2425,0.31392,-0.0012453,0.24,0.06,0
0.16923,0.025324,0.74103,-1.176,-1.0861,-1.4197,-0.018828,0,0,0.31674,0.43366,0,-0.048952,0,0,1.061,0.015023,0,1.0611,-1.0823,-1.1798,-1.4197,-78.641,-1.2272,0.30072,-0.00091768,0.26,0.06,0
0.1753,0.023797,0.71986,-1.1676,-1.078,-1.3936,-0.031209,0,0,0.29375,0.41015,0,-0.081143,0,0,1.054,0.026798,0,1.0543,-1.0682,-1.1774,-1.3936,-72.56,-1.2131,0.28676,-0.00064645,0.28,0.06,0
0.18099,0.021797,0.69888,-1.1542,-1.081,-1.3694,-0.043803,0,0,0.27984,0.37496,0,-0.11389,0,0,1.0416,0.039619,0,1.0423,-1.0605,-1.1746,-1.3694,-64.934,-1.2015,0.27055,-0.00044122,0.3,0.06,0
0.18649,0.01945,0.6782,-1.1363,-1.0957,-1.3478,-0.051621,0,0,0.27492,0.32777,0,-0.13421,0,0,1.0232,0.050556,0,1.0246,-1.0605,-1.1715,-1.3478,-55.747,-1.1932,0.25094,-0.00030995,0.32,0.06,0
0.19198,0.017045,0.65795,-1.1172,-1.1154,-1.3277,-0.050887,0,0,0.27369,0.27602,0,-0.13231,0,0,1.0006,0.055632,0,1.0022,-1.0654,-1.1672,-1.3277,-45.505,-1.1868,0.22907,-0.00023226,0.34,0.06,0
0.19744,0.014919,0.63818,-1.0989,-1.1259,-1.3056,-0.041344,0,0,0.26876,0.23361,0,-0.10749,0,0,0.97745,0.051357,0,0.97886,-1.0689,-1.1559,-1.3056,-35.945,-1.1768,0.20739,-0.0002015,0.36,0.06,0
0.20273,0.013254,0.61885,-1.0843,-1.1238,-1.2813,-0.028664,0,0,0.25606,0.20476,0,-0.074527,0,0,0.95825,0.039524,0,0.95908,-1.0692,-1.1388,-1.2813,-27.73,-1.1631,0.18721,-0.00018674,0.38,0.06,0
0.20768,0.012065,0.59984,-1.0755,-1.1133,-1.2565,-0.015878,0,0,0.23532,0.18615,0,-0.041282,0,0,0.94578,0.023964,0,0.94607,-1.0697,-1.1191,-1.2565,-20.01,-1.1484,0.16765,-0.00017309,0.4,0.06,0
0.21215,0.011293,0.58102,-1.0712,-1.0965,-1.2313,-0.0045156,0,0,0.2082,0.17528,0,-0.01174,0,0,0.94045,0.0087521,0,0.94047,-1.0704,-1.0973,-1.2313,-9.8148,-1.133,0.14932,-0.00015248,0.42,0.06,0
0.21601,0.010875,0.56223,-1.071,-1.0751,-1.2061,0.0054668,0,0,0.17562,0.17019,0,0.014214,0,0,0.94119,-0.0044876,0,0.94119,-1.0672,-1.0789,-1.2061,34.544,-1.1174,0.13339,-0.00011874,0.44,0.06,0
0.21917,0.01076,0.54337,-1.0741,-1.0495,-1.1805,0.014121,0,0,0.13826,0.17021,0,0.036715,0,0,0.94655,-0.015095,0,0.94667,-1.0431,-1.0805,-1.1805,65.514,-1.1014,0.12299,-6.6562e-05,0.46,0.06,0
0.22154,0.010901,0.52436,-1.0801,-1.0198,-1.1543,0.021286,0,0,0.096542,0.17487,0,0.055343,0,0,0.95519,-0.022754,0,0.95547,-1.0131,-1.0868,-1.1543,72.379,-1.0847,0.12239,7.2341e-06,0.48,0.06,0
0.22303,0.011245,0.50516,-1.0882,-0.98643,-1.1276,0.026506,0,0,0.051155,0.18345,0,0.068917,0,0,0.96584,-0.027402,0,0.96625,-0.97994,-1.0947,-1.1276,76.242,-1.0674,0.13423,9.9567e-05,0.5,0.06,0
0.22359,0.011723,0.48573,-1.0977,-0.95047,-1.1002,0.029323,0,0,0.0032608,0.19461,0,0.07624,0,0,0.97731,-0.029264,0,0.97777,-0.94485,-1.1033,-1.1002,79.138,-1.0494,0.15691,0.00019815,0.52,0.06,0
0.22316,0.012255,0.46607,-1.1075,-0.91359,-1.0724,0.029587,0,0,-0.045632,0.20644,0,0.076926,0,0,0.98861,-0.028851,0,0.98905,-0.90918,-1.1119,-1.0724,81.515,-1.0312,0.18615,0.00028162,0.54,0.06,0
0.22176,0.012762,0.44619,-1.1168,-0.87747,-1.0445,0.027657,0,0,-0.094038,0.2171,0,0.071909,0,0,0.99903,-0.026834,0,0.9994,-0.87432,-1.12,-1.0445,83.493,-1.0129,0.21793,0.00032459,0.56,0.06,0
0.2194,0.013181,0.42611,-1.1249,-0.84325,-1.0166,0.024238,0,0,-0.14087,0.2253,0,0.063018,0,0,1.0082,-0.02388,0,1.0085,-0.84118,-1.127,-1.0166,85.118,-0.99491,0.24964,0.0003048,0.58,0.06,0
0.21613,0.013473,0.40586,-1.1315,-0.81137,-0.98872,0.020093,0,0,-0.1856,0.23055,0,0.052241,0,0,1.0159,-0.02051,0,1.0161,-0.81011,-1.1327,-0.98872,86.422,-0.97719,0.27994,0.0002077,0.6,0.06,0
0.21198,0.013624,0.38547,-1.1364,-0.7818,-0.96095,0.015807,0,0,-0.22815,0.23289,0,0.041097,0,0,1.0222,-0.01706,0,1.0224,-0.7811,-1.1372,-0.96095,87.453,-0.95973,0.30836,2.6689e-05,0.62,0.06,0
0.207,0.013635,0.36497,-1.1399,-0.75429,-0.93324,0.011722,0,0,-0.26871,0.23264,0,0.030477,0,0,1.0273,-0.013703,0,1.0274,-0.75393,-1.1403,-0.93324,88.261,-0.94249,0.33489,-0.00023921,0.64,0.06,0
0.20123,0.013517,0.34438,-1.1421,-0.72851,-0.90557,0.0079795,0,0,-0.30753,0.23018,0,0.020747,0,0,1.0313,-0.010497,0,1.0313,-0.72836,-1.1423,-0.90557,88.895,-0.92541,0.3597,-0.00058769,0.66,0.06,0
0.1947,0.013284,0.32372,-1.1432,-0.70418,-0.87794,0.0045991,0,0,-0.34485,0.22588,0,0.011957,0,0,1.0342,-0.0074366,0,1.0342,-0.70414,-1.1433,-0.87794,89.4,-0.90844,0.38303,-0.0010147,0.68,0.06,0
0.18743,0.012955,0.30301,-1.1433,-0.68104,-0.85031,0.0015441,0,0,-0.38087,0.22005,0,0.0040146,0,0,1.0361,-0.0044781,0,1.0361,-0.68103,-1.1433,-0.85031,89.809,-0.89155,0.40508,-0.0015152,0.7,0.06,0
0.17946,0.012546,0.28227,-1.1425,-0.65885,-0.82267,-0.0012338,0,0,-0.41573,0.21296,0,-0.003208,0,0,1.0371,-0.0015601,0,1.0371,-0.65885,-1.1425,-0.82267,-89.854,-0.87466,0.42602,-0.0020835,0.72,0.06,0
0.17081,0.012073,0.26153,-1.1408,-0.63741,-0.79499,-0.0037673,0,0,-0.44955,0.20485,0,-0.0097949,0,0,1.0372,0.0013848,0,1.0372,-0.63738,-1.1408,-0.79499,-89.571,-0.85773,0.44604,-0.0027137,0.74,0.06,0
0.16148,0.011553,0.24079,-1.1383,-0.61651,-0.76723,-0.0060538,0,0,-0.4824,0.19594,0,-0.01574,0,0,1.0363,0.0044201,0,1.0363,-0.61644,-1.1384,-0.76723,-89.335,-0.84069,0.46525,-0.0033998,0.76,0.06,0
0.15151,0.011006,0.22007,-1.135,-0.59596,-0.73938,-0.0080408,0,0,-0.51437,0.18644,0,-0.020906,0,0,1.0344,0.0075936,0,1.0344,-0.59584,-1.1352,-0.73938,-89.146,-0.82346,0.4838,-0.0041364,0.78,0.06,0
0.14091,0.010452,0.19941,-1.131,-0.57553,-0.71138,-0.0096151,0,0,-0.54556,0.17661,0,-0.024999,0,0,1.0313,0.010919,0,1.0314,-0.57536,-1.1312,-0.71138,-89.009,-0.80598,0.50186,-0.0049198,0.8,0.06,0
0.12969,0.0099157,0.17882,-1.1264,-0.55491,-0.68322,-0.010604,0,0,-0.57616,0.1668,0,-0.02757,0,0,1.0271,0.014351,0,1.0272,-0.55471,-1.1266,-0.68322,-88.937,-0.78818,0.5197,-0.0057504,0.82,0.06,0
0.11786,0.0094277,0.15833,-1.1214,-0.53371,-0.65485,-0.010804,0,0,-0.60647,0.15748,0,-0.02809,0,0,1.0215,0.017736,0,1.0216,-0.53351,-1.1216,-0.65485,-88.947,-0.76997,0.53775,-0.0066362,0.84,0.06,0
0.10543,0.0090188,0.13796,-1.1162,-0.51139,-0.62624,-0.010072,0,0,-0.63695,0.1493,0,-0.026186,0,0,1.0145,0.020777,0,1.0147,-0.51122,-1.1164,-0.62624,-89.046,-0.75128,0.55662,-0.0075981,0.86,0.06,0
0.092382,0.0087167,0.11775,-1.1113,-0.48729,-0.59733,-0.0084454,0,0,-0.66816,0.14304,0,-0.021958,0,0,1.0062,0.023014,0,1.0065,-0.48718,-1.1114,-0.59733,-89.225,-0.73197,0.5771,-0.0086715,0.88,0.06,0
0.078702,0.0085359,0.097712,-1.107,-0.46094,-0.56809,-0.0062508,0,0,-0.70057,0.1393,0,-0.016252,0,0,0.99713,0.023884,0,0.99743,-0.46088,-1.1071,-0.56809,-89.446,-0.71201,0.5998,-0.0098997,0.9,0.06,0
0.064359,0.008469,0.077864,-1.1035,-0.43235,-0.53861,-0.0040169,0,0,-0.73432,0.13814,0,-0.010444,0,0,0.9878,0.022876,0,0.98808,-0.43233,-1.1035,-0.53861,-89.657,-0.69148,0.62484,-0.011317,0.92,0.06,0
0.049329,0.0084851,0.0582,-1.1007,-0.4023,-0.50911,-0.0022428,0,0,-0.76912,0.13886,0,-0.0058314,0,0,0.97913,0.019716,0,0.97934,-0.40229,-1.1007,-0.50911,-89.816,-0.67072,0.65165,-0.012935,0.94,0.06,0
0.033594,0.0085396,0.038698,-1.0987,-0.37193,-0.47989,-0.0011153,0,0,-0.80446,0.14035,0,-0.0028998,0,0,0.97207,0.014495,0,0.97218,-0.37193,-1.0987,-0.47989,-89.912,-0.65017,0.67926,-0.014735,0.96,0.06,0
0.01715,0.0085897,0.019317,-1.0972,-0.34224,-0.45114,-0.00048431,0,0,-0.83985,0.14158,0,-0.0012592,0,0,0.96746,0.0076788,0,0.96749,-0.34224,-1.0972,-0.45114,-89.963,-0.63019,0.70682,-0.016694,0.98,0.06,0
0,0.0086081,0,-1.0724,-0.30355,-0.41279,0.00035441,0,0,-0.85752,0.14201,0,0.00092148,0,0,0.96586,1.5179e-17,0,0.96585,-0.30355,-1.0724,-0.41279,89.974,-0.59626,0.72049,-0.017729,1,0.06,0
0,0.012277,1,-1.0565,-1.7372,-1.8381,0.0059629,0,0,1.0161,0.13122,0,0.015504,0,0,0.87217,-2.0817e-15,0,0.87211,-1.0565,-1.7372,-1.8381,0.5019,-1.5439,0.7364,0.019218,0,0.08,0
0.020321,0.012587,0.98256,-1.036,-1.7008,-1.8036,0.016367,0,0,0.9979,0.13362,0,0.042554,0,0,0.87538,-0.024233,0,0.87566,-1.0356,-1.7012,-1.8036,1.4094,-1.5134,0.72229,0.018049,0.02,0.08,0
0.039916,0.013575,0.96498,-1.04,-1.6686,-1.7775,0.035711,0,0,0.95887,0.14164,0,0.092848,0,0,0.88591,-0.049474,0,0.88725,-1.0379,-1.6706,-1.7775,3.2409,-1.4954,0.69237,0.015685,0.04,0.08,0
0.058676,0.015419,0.94712,-1.0517,-1.6309,-1.7519,0.060296,0,0,0.91024,0.15728,0,0.15677,0,0,0.90682,-0.076113,0,0.91003,-1.0455,-1.6372,-1.7519,5.8806,-1.4782,0.65657,0.013052,0.06,0.08,0
0.076326,0.018349,0.92871,-1.0728,-1.5737,-1.7227,0.09086,0,0,0.84481,0.19365,0,0.23624,0,0,0.93922,-0.10085,0,0.94483,-1.0568,-1.5897,-1.7227,9.9701,-1.4564,0.6103,0.009832,0.08,0.08,0
0.092468,0.022468,0.90955,-1.1032,-1.4794,-1.6844,0.11311,0,0,0.75547,0.26638,0,0.29407,0,0,0.97876,-0.10628,0,0.98476,-1.0718,-1.5108,-1.6844,15.508,-1.4223,0.54681,0.0056348,0.1,0.08,0
0.10654,0.027144,0.88956,-1.1282,-1.3491,-1.6327,0.11096,0,0,0.65591,0.36877,0,0.2885,0,0,1.0157,-0.094141,0,1.0202,-1.0821,-1.3952,-1.6327,22.568,-1.37,0.47838,0.0013209,0.12,0.08,0
0.11871,0.031163,0.86892,-1.1535,-1.2586,-1.5926,0.082068,0,0,0.57077,0.43413,0,0.21338,0,0,1.0423,-0.069194,0,1.0446,-1.1086,-1.3035,-1.5926,28.683,-1.3349,0.42175,-0.0012687,0.14,0.08,0
0.12937,0.033937,0.84787,-1.1703,-1.2086,-1.5615,0.053822,0,0,0.50862,0.45881,0,0.13994,0,0,1.0581,-0.049458,0,1.0592,-1.1323,-1.2466,-1.5615,35.205,-1.3135,0.38502,-0.0020845,0.16,0.08,0
0.13905,0.03552,0.8266,-1.1742,-1.1693,-1.5296,0.032429,0,0,0.46204,0.46851,0,0.084316,0,0,1.0668,-0.033553,0,1.0673,-1.1392,-1.2043,-1.5296,47.193,-1.2911,0.36231,-0.0021796,0.18,0.08,0
0.14786,0.036193,0.8052,-1.1761,-1.1378,-1.4994,0.016929,0,0,0.4203,0.47002,0,0.044015,0,0,1.072,-0.019988,0,1.0722,-1.1314,-1.1825,-1.4994,69.24,-1.2711,0.34527,-0.001959,0.2,0.08,0
0.15586,0.036127,0.78372,-1.1771,-1.1118,-1.4704,0.0043733,0,0,0.38125,0.46615,0,0.011371,0,0,1.075,-0.0075217,0,1.075,-1.1116,-1.1774,-1.4704,86.186,-1.2531,0.33088,-0.0016147,0.22,0.08,0
0.16311,0.035421,0.7622,-1.1777,-1.0905,-1.4427,-0.007437,0,0,0.34446,0.4578,0,-0.019336,0,0,1.0757,0.0049292,0,1.0757,-1.0899,-1.1783,-1.4427,-85.159,-1.2369,0.31793,-0.00123,0.24,0.08,0
0.16964,0.034102,0.74069,-1.1771,-1.0738,-1.416,-0.020489,0,0,0.3105,0.44482,0,-0.053271,0,0,1.0741,0.018438,0,1.0742,-1.0699,-1.181,-1.416,-79.183,-1.2223,0.30604,-0.00084443,0.26,0.08,0
0.17553,0.032139,0.71924,-1.1739,-1.0629,-1.3903,-0.03695,0,0,0.28133,0.42557,0,-0.096069,0,0,1.069,0.034218,0,1.0695,-1.0517,-1.185,-1.3903,-73.167,-1.209,0.29538,-0.0004739,0.28,0.08,0
0.18089,0.029427,0.69793,-1.1597,-1.0592,-1.3636,-0.057005,0,0,0.26507,0.39574,0,-0.14821,0,0,1.0568,0.053674,0,1.0582,-1.0334,-1.1854,-1.3636,-65.7,-1.1942,0.28622,-0.00016469,0.3,0.08,0
0.18613,0.026056,0.67697,-1.1402,-1.0836,-1.3441,-0.076043,0,0,0.26506,0.33867,0,-0.19771,0,0,1.034,0.077918,0,1.037,-1.0308,-1.193,-1.3441,-55.211,-1.1893,0.27142,6.3667e-05,0.32,0.08,0
0.19149,0.022484,0.65657,-1.1191,-1.1271,-1.3304,-0.075371,0,0,0.27474,0.26432,0,-0.19596,0,0,1.0014,0.08881,0,1.0055,-1.0476,-1.1986,-1.3304,-43.477,-1.1922,0.2451,8.8235e-05,0.34,0.08,0
0.19712,0.019436,0.63691,-1.094,-1.1439,-1.3083,-0.060512,0,0,0.27853,0.21373,0,-0.15733,0,0,0.96698,0.082121,0,0.97061,-1.0535,-1.1844,-1.3083,-33.806,-1.1821,0.22067,2.6268e-05,0.36,0.08,0
0.20264,0.01719,0.61789,-1.0773,-1.1422,-1.2837,-0.039315,0,0,0.26836,0.184,0,-0.10222,0,0,0.94068,0.056846,0,0.94237,-1.0588,-1.1607,-1.2837,-25.234,-1.1678,0.19511,-6.1532e-05,0.38,0.08,0
0.20785,0.015643,0.59928,-1.0667,-1.1277,-1.2576,-0.02082,0,0,0.24816,0.16892,0,-0.054131,0,0,0.92658,0.031132,0,0.92705,-1.0603,-1.1341,-1.2576,-17.169,-1.1506,0.17268,-0.00011098,0.4,0.08,0
0.21256,0.014675,0.58083,-1.0633,-1.1091,-1.2326,-0.0050018,0,0,0.22001,0.16049,0,-0.013005,0,0,0.92322,0.0086999,0,0.92322,-1.0628,-1.1096,-1.2326,-6.1625,-1.135,0.15187,-0.00012384,0.42,0.08,0
0.21665,0.014173,0.56236,-1.064,-1.0863,-1.2074,0.0086415,0,0,0.18643,0.15754,0,0.022468,0,0,0.92698,-0.0099805,0,0.92702,-1.0611,-1.0892,-1.2074,18.936,-1.1193,0.13452,-0.0001068,0.44,0.08,0
0.22002,0.014076,0.54375,-1.0685,-1.0593,-1.1821,0.020636,0,0,0.14765,0.15965,0,0.053654,0,0,0.93578,-0.024671,0,0.93611,-1.0427,-1.085,-1.1821,51.301,-1.1033,0.12374,-6.0372e-05,0.46,0.08,0
0.22256,0.014333,0.52492,-1.0762,-1.0277,-1.1561,0.03072,0,0,0.10389,0.16689,0,0.079872,0,0,0.94804,-0.035036,0,0.94871,-1.0128,-1.0911,-1.1561,64.133,-1.0867,0.12425,1.5683e-05,0.48,0.08,0
0.22418,0.014876,0.50583,-1.0863,-0.99151,-1.1292,0.038106,0,0,0.055732,0.17896,0,0.099074,0,0,0.96221,-0.040899,0,0.9631,-0.97809,-1.0997,-1.1292,70.6,-1.069,0.13872,0.00011653,0.5,0.08,0
0.22479,0.01561,0.48644,-1.0978,-0.95194,-1.1014,0.04181,0,0,0.0046568,0.19423,0,0.10871,0,0,0.97673,-0.042574,0,0.97769,-0.9408,-1.1089,-1.1014,75.085,-1.0503,0.16445,0.00022681,0.52,0.08,0
0.22436,0.016408,0.46676,-1.1093,-0.91166,-1.0731,0.041568,0,0,-0.047163,0.20981,0,0.10808,0,0,0.99033,-0.040948,0,0.9912,-0.90328,-1.1177,-1.0731,78.595,-1.0313,0.19597,0.00031987,0.54,0.08,0
0.2229,0.017149,0.44682,-1.1199,-0.87326,-1.0448,0.038082,0,0,-0.097629,0.22295,0,0.099013,0,0,1.0022,-0.037211,0,1.0029,-0.86751,-1.1256,-1.0448,81.418,-1.0126,0.22865,0.00036527,0.56,0.08,0
0.22046,0.017743,0.42667,-1.1286,-0.83804,-1.0167,0.032704,0,0,-0.14548,0.23219,0,0.085031,0,0,1.012,-0.032464,0,1.0126,-0.8344,-1.1322,-1.0167,83.656,-0.99442,0.26004,0.00033986,0.58,0.08,0
0.21708,0.018142,0.40634,-1.1352,-0.80606,-0.98872,0.026665,0,0,-0.19042,0.23745,0,0.069329,0,0,1.02,-0.027463,0,1.0204,-0.80392,-1.1373,-0.98872,85.398,-0.97666,0.28932,0.00023208,0.6,0.08,0
0.21284,0.018337,0.38587,-1.14,-0.77685,-0.96092,0.020767,0,0,-0.23277,0.23928,0,0.053995,0,0,1.0263,-0.022605,0,1.0265,-0.77567,-1.1412,-0.96092,86.737,-0.95925,0.31653,3.8677e-05,0.62,0.08,0
0.20777,0.018338,0.36529,-1.1432,-0.74983,-0.9332,0.015361,0,0,-0.27302,0.23839,0,0.039938,0,0,1.0312,-0.018037,0,1.0313,-0.74923,-1.1438,-0.9332,87.767,-0.94208,0.34198,-0.00023952,0.64,0.08,0
0.20192,0.018166,0.34462,-1.1453,-0.72453,-0.90556,0.010523,0,0,-0.3116,0.23533,0,0.027359,0,0,1.0349,-0.013773,0,1.035,-0.72427,-1.1455,-0.90556,88.568,-0.92512,0.36599,-0.00060024,0.66,0.08,0
0.19531,0.017844,0.32389,-1.1463,-0.70061,-0.87797,0.0062003,0,0,-0.34885,0.23057,0,0.016121,0,0,1.0377,-0.009759,0,1.0377,-0.70052,-1.1464,-0.87797,89.203,-0.9083,0.38881,-0.0010403,0.68,0.08,0
0.18796,0.017395,0.30312,-1.1465,-0.67778,-0.85041,0.0022971,0,0,-0.38495,0.22441,0,0.0059726,0,0,1.0395,-0.0059086,0,1.0395,-0.67777,-1.1465,-0.85041,89.719,-0.89157,0.41063,-0.0015558,0.7,0.08,0
0.17991,0.016841,0.28231,-1.146,-0.65584,-0.82285,-0.0012808,0,0,-0.42003,0.21711,0,-0.0033302,0,0,1.0405,-0.0021215,0,1.0405,-0.65584,-1.146,-0.82285,-89.85,-0.87488,0.43157,-0.0021421,0.72,0.08,0
0.17116,0.016204,0.26149,-1.1446,-0.63461,-0.79526,-0.0046006,0,0,-0.45415,0.20885,0,-0.011962,0,0,1.0407,0.0017076,0,1.0407,-0.63457,-1.1446,-0.79526,-89.483,-0.85816,0.45171,-0.0027936,0.74,0.08,0
0.16174,0.015504,0.24069,-1.1425,-0.61393,-0.7676,-0.0076844,0,0,-0.48733,0.19978,0,-0.019979,0,0,1.0399,0.0056816,0,1.0399,-0.61381,-1.1426,-0.7676,-89.167,-0.84133,0.47109,-0.0035039,0.76,0.08,0
0.15167,0.014764,0.2199,-1.1395,-0.59366,-0.73984,-0.010492,0,0,-0.51954,0.19004,0,-0.027279,0,0,1.0382,0.0098907,0,1.0382,-0.59345,-1.1397,-0.73984,-88.899,-0.82433,0.48974,-0.0042652,0.78,0.08,0
0.14096,0.014009,0.19916,-1.1356,-0.57364,-0.71193,-0.012901,0,0,-0.55078,0.17978,0,-0.033542,0,0,1.0353,0.014396,0,1.0354,-0.57334,-1.1359,-0.71193,-88.686,-0.80706,0.50766,-0.0050693,0.8,0.08,0
0.12964,0.013269,0.17849,-1.1308,-0.55368,-0.68383,-0.014683,0,0,-0.58105,0.16919,0,-0.038177,0,0,1.0312,0.019196,0,1.0313,-0.55331,-1.1312,-0.68383,-88.543,-0.78943,0.52491,-0.0059084,0.82,0.08,0
0.11772,0.012583,0.15791,-1.1252,-0.53349,-0.6555,-0.015509,0,0,-0.61054,0.15862,0,-0.040324,0,0,1.0254,0.024161,0,1.0257,-0.53308,-1.1256,-0.6555,-88.499,-0.77138,0.54174,-0.0067811,0.84,0.08,0
0.10522,0.011997,0.13747,-1.119,-0.51245,-0.6269,-0.015018,0,0,-0.6397,0.14878,0,-0.039048,0,0,1.0178,0.028927,0,1.0182,-0.51208,-1.1194,-0.6269,-88.582,-0.75278,0.55878,-0.0077009,0.86,0.08,0
0.092133,0.011557,0.1172,-1.1128,-0.48965,-0.59793,-0.013083,0,0,-0.66932,0.14077,0,-0.034016,0,0,1.0083,0.032799,0,1.0088,-0.48937,-1.1131,-0.59793,-88.798,-0.73346,0.57713,-0.008707,0.88,0.08,0
0.078445,0.011293,0.097138,-1.1071,-0.46398,-0.56846,-0.010038,0,0,-0.70023,0.13583,0,-0.026098,0,0,0.99722,0.034785,0,0.99784,-0.46382,-1.1073,-0.56846,-89.106,-0.71318,0.59802,-0.0098603,0.9,0.08,0
0.064123,0.011202,0.07731,-1.1022,-0.43512,-0.53852,-0.0067628,0,0,-0.73284,0.13441,0,-0.017583,0,0,0.9854,0.03389,0,0.98601,-0.43506,-1.1023,-0.53852,-89.419,-0.69196,0.62201,-0.011216,0.92,0.08,0
0.049132,0.011236,0.057722,-1.0983,-0.40417,-0.50848,-0.0040933,0,0,-0.76683,0.1356,0,-0.010643,0,0,0.97412,0.029524,0,0.97458,-0.40414,-1.0984,-0.50848,-89.662,-0.67033,0.64839,-0.012787,0.94,0.08,0
0.03345,0.011326,0.038346,-1.0954,-0.37303,-0.47888,-0.0023391,0,0,-0.80149,0.1376,0,-0.0060816,0,0,0.96478,0.02182,0,0.96503,-0.37302,-1.0954,-0.47888,-89.814,-0.6491,0.67571,-0.014543,0.96,0.08,0
0.017072,0.011404,0.01913,-1.0933,-0.34311,-0.45006,-0.0011411,0,0,-0.83625,0.13904,0,-0.0029668,0,0,0.95864,0.011577,0,0.95871,-0.3431,-1.0933,-0.45006,-89.913,-0.62883,0.70288,-0.016451,0.98,0.08,0
0,0.011432,0,-1.0686,-0.30468,-0.41199,0.00053734,0,0,-0.85361,0.1395,0,0.0013971,0,0,0.95651,1.301e-17,0,0.95649,-0.30468,-1.0686,-0.41199,89.96,-0.59509,0.71634,-0.017459,1,0.08,0
0,0.014748,1,-1.051,-1.7538,-1.8414,0.0066983,0,0,1.0275,0.11397,0,0.017416,0,0,0.84496,-3.1399e-16,0,0.84488,-1.051,-1.7538,-1.8414,0.54606,-1.5487,0.75052,0.020718,0,0.1,0
0.020551,0.015096,0.9831,-1.0311,-1.7194,-1.8083,0.019466,0,0,1.0103,0.11549,0,0.050611,0,0,0.84731,-0.029308,0,0.84772,-1.0306,-1.72,-1.8083,1.6186,-1.5196,0.73752,0.019612,0.02,0.1,0
0.040411,0.016219,0.96611,-1.0356,-1.6918,-1.7843,0.042117,0,0,0.97335,0.1203,0,0.10951,0,0,0.85529,-0.061067,0,0.85737,-1.0329,-1.6945,-1.7843,3.6575,-1.5039,0.71077,0.017452,0.04,0.1,0
0.059485,0.018289,0.94889,-1.0424,-1.6595,-1.7594,0.073474,0,0,0.93221,0.12996,0,0.19103,0,0,0.87358,-0.098325,0,0.87897,-1.0337,-1.6681,-1.7594,6.697,-1.4871,0.68462,0.015496,0.06,0.1,0
0.0777,0.021916,0.93116,-1.0782,-1.6317,-1.7442,0.11842,0,0,0.86569,0.14615,0,0.30789,0,0,0.91915,-0.14577,0,0.93064,-1.054,-1.656,-1.7442,11.583,-1.4847,0.6506,0.013273,0.08,0.1,0
0.094112,0.027647,0.91212,-1.1133,-1.5086,-1.6987,0.16765,0,0,0.76101,0.24715,0,0.43589,0,0,0.98393,-0.19431,0,1.0045,-1.0517,-1.5701,-1.6987,20.153,-1.4402,0.59318,0.0090446,0.1,0.1,0
0.10814,0.034838,0.89181,-1.1238,-1.2754,-1.6116,0.13925,0,0,0.63411,0.43701,0,0.36205,0,0,1.0413,-0.11901,0,1.0477,-1.041,-1.3581,-1.6116,30.718,-1.3369,0.49511,0.0011958,0.12,0.1,0
0.11948,0.040249,0.87047,-1.1713,-1.23,-1.5908,0.09162,0,0,0.54541,0.46916,0,0.23821,0,0,1.0712,-0.081395,0,1.0742,-1.1044,-1.2968,-1.5908,36.125,-1.3307,0.42431,-0.0013826,0.14,0.1,0
0.12996,0.043336,0.84896,-1.1674,-1.1863,-1.5551,0.056322,0,0,0.50396,0.4794,0,0.14644,0,0,1.0784,-0.056801,0,1.0798,-1.1198,-1.234,-1.5551,40.24,-1.3029,0.39093,-0.0022085,0.16,0.1,0
0.13964,0.045033,0.82734,-1.1663,-1.1531,-1.5232,0.035189,0,0,0.46391,0.48106,0,0.091491,0,0,1.083,-0.038426,0,1.0836,-1.1239,-1.1955,-1.5232,50.309,-1.2809,0.3687,-0.0022505,0.18,0.1,0
0.14851,0.04569,0.80564,-1.1672,-1.1251,-1.4933,0.019841,0,0,0.42392,0.47873,0,0.051586,0,0,1.0861,-0.023211,0,1.0864,-1.1172,-1.1751,-1.4933,68.366,-1.2619,0.35078,-0.0020147,0.2,0.1,0
0.15659,0.045531,0.78389,-1.1694,-1.1006,-1.4649,0.0073119,0,0,0.38414,0.47359,0,0.019011,0,0,1.0884,-0.009364,0,1.0884,-1.0998,-1.1702,-1.4649,84.001,-1.2449,0.33548,-0.0016554,0.22,0.1,0
0.16388,0.044665,0.7621,-1.1721,-1.0789,-1.4374,-0.0046935,0,0,0.34487,0.46604,0,-0.012203,0,0,1.0898,0.0044783,0,1.0898,-1.0787,-1.1724,-1.4374,-87.125,-1.2295,0.32227,-0.0012419,0.24,0.1,0
0.17039,0.043117,0.7403,-1.1754,-1.0602,-1.411,-0.018276,0,0,0.30626,0.456,0,-0.047517,0,0,1.0903,0.019678,0,1.0904,-1.0574,-1.1782,-1.411,-81.197,-1.2155,0.31129,-0.00079951,0.26,0.1,0
0.17613,0.04082,0.71849,-1.1789,-1.0452,-1.3857,-0.035807,0,0,0.26882,0.44271,0,-0.093099,0,0,1.0892,0.038014,0,1.0898,-1.0362,-1.1879,-1.3857,-75.918,-1.2033,0.30357,-0.00032465,0.28,0.1,0
0.18114,0.037627,0.69673,-1.1816,-1.037,-1.3623,-0.063328,0,0,0.23491,0.4229,0,-0.16465,0,0,1.0853,0.062502,0,1.087,-1.0132,-1.2054,-1.3623,-69.394,-1.1936,0.30287,0.00024866,0.3,0.1,0
0.18553,0.032997,0.67508,-1.1403,-1.0274,-1.3254,-0.098224,0,0,0.24062,0.38735,0,-0.25538,0,0,1.0584,0.099768,0,1.0627,-0.9706,-1.1972,-1.3254,-59.94,-1.1644,0.31118,0.00070905,0.32,0.1,0
0.19076,0.027618,0.65439,-1.1274,-1.1488,-1.3372,-0.12255,0,0,0.27281,0.245,0,-0.31864,0,0,1.0048,0.17278,0,1.021,-1.0151,-1.2611,-1.3372,-42.505,-1.2045,0.29166,0.00098747,0.34,0.1,0
0.19644,0.023468,0.63489,-1.0953,-1.1875,-1.3197,-0.084672,0,0,0.29181,0.17185,0,-0.22015,0,0,0.94549,0.12035,0,0.953,-1.045,-1.2378,-1.3197,-30.706,-1.2008,0.24433,0.0004752,0.36,0.1,0
0.20244,0.020614,0.61657,-1.0618,-1.1654,-1.2847,-0.050804,0,0,0.2898,0.15514,0,-0.13209,0,0,0.90726,0.071672,0,0.90992,-1.0411,-1.1862,-1.2847,-22.224,-1.1706,0.21231,0.00015897,0.38,0.1,0
0.20803,0.018822,0.5986,-1.0541,-1.1474,-1.259,-0.024584,0,0,0.26645,0.14515,0,-0.063917,0,0,0.89764,0.034653,0,0.8982,-1.048,-1.1535,-1.259,-13.892,-1.1535,0.18277,-2.45e-07,0.4,0.1,0
0.2131,0.017713,0.58067,-1.0516,-1.1256,-1.2338,-0.0042794,0,0,0.23688,0.14072,0,-0.011126,0,0,0.89934,0.004945,0,0.89929,-1.0514,-1.1258,-1.2338,-3.3001,-1.137,0.1589,-6.4268e-05,0.42,0.1,0
0.21751,0.017177,0.56263,-1.0541,-1.1009,-1.2091,0.013321,0,0,0.20154,0.1407,0,0.034634,0,0,0.90782,-0.019378,0,0.908,-1.0506,-1.1044,-1.2091,14.826,-1.1214,0.13965,-7.3035e-05,0.44,0.1,0
0.22116,0.017146,0.54436,-1.0607,-1.0725,-1.1843,0.028949,0,0,0.16071,0.14535,0,0.075267,0,0,0.9215,-0.038609,0,0.92232,-1.0371,-1.0961,-1.1843,39.236,-1.1058,0.12836,-3.628e-05,0.46,0.1,0
0.22393,0.017577,0.52577,-1.071,-1.0388,-1.1587,0.042567,0,0,0.11403,0.15585,0,0.11067,0,0,0.93896,-0.052031,0,0.94044,-1.0094,-1.1004,-1.1587,55.348,-1.0895,0.13033,4.1907e-05,0.48,0.1,0
0.22572,0.018403,0.5068,-1.0842,-0.99858,-1.1316,0.052588,0,0,0.0617,0.17295,0,0.13673,0,0,0.9583,-0.058824,0,0.96016,-0.97358,-1.1092,-1.1316,64.566,-1.0715,0.1481,0.00015398,0.5,0.1,0
0.2264,0.019493,0.48743,-1.0985,-0.95307,-1.1029,0.057119,0,0,0.0057056,0.1948,0,0.14851,0,0,0.97727,-0.059311,0,0.97911,-0.93332,-1.1183,-1.1029,70.927,-1.0515,0.17777,0.00028128,0.52,0.1,0
0.22595,0.020648,0.46771,-1.1125,-0.90751,-1.0737,0.055385,0,0,-0.050405,0.21605,0,0.144,0,0,0.99398,-0.055091,0,0.99553,-0.8935,-1.1265,-1.0737,75.806,-1.0312,0.21159,0.00038635,0.54,0.1,0
0.22439,0.02168,0.44767,-1.1245,-0.86635,-1.0449,0.049205,0,0,-0.10344,0.23215,0,0.12793,0,0,1.0075,-0.048452,0,1.0087,-0.85729,-1.1336,-1.0449,79.566,-1.0119,0.24433,0.00043041,0.56,0.1,0
0.22181,0.022468,0.42741,-1.1336,-0.83049,-1.0166,0.041021,0,0,-0.15206,0.24198,0,0.10665,0,0,1.0179,-0.041168,0,1.0188,-0.82504,-1.1391,-1.0166,82.427,-0.99358,0.27414,0.00039199,0.58,0.1,0
0.2183,0.022971,0.40696,-1.14,-0.79904,-0.98866,0.032783,0,0,-0.19669,0.24651,0,0.085236,0,0,1.0257,-0.034198,0,1.0263,-0.79592,-1.1431,-0.98866,84.557,-0.97589,0.30127,0.00026648,0.6,0.1,0
0.21394,0.023196,0.38638,-1.1442,-0.7706,-0.96081,0.025293,0,0,-0.23838,0.24728,0,0.065762,0,0,1.0317,-0.027821,0,1.032,-0.76889,-1.1459,-0.96081,86.144,-0.95853,0.3265,5.6174e-05,0.62,0.1,0
0.20877,0.023171,0.36569,-1.147,-0.74434,-0.93309,0.01873,0,0,-0.27808,0.24538,0,0.048698,0,0,1.0362,-0.022049,0,1.0364,-0.74347,-1.1479,-0.93309,87.343,-0.94148,0.35045,-0.00023756,0.64,0.1,0
0.20282,0.02293,0.34493,-1.1488,-0.71969,-0.90549,0.012997,0,0,-0.31635,0.24154,0,0.033792,0,0,1.0396,-0.01679,0,1.0397,-0.7193,-1.1492,-0.90549,88.267,-0.92467,0.37345,-0.00061345,0.66,0.1,0
0.19611,0.022507,0.32411,-1.1499,-0.69627,-0.87797,0.0079234,0,0,-0.35355,0.23621,0,0.020601,0,0,1.042,-0.011913,0,1.0421,-0.69613,-1.1501,-0.87797,89,-0.90806,0.3957,-0.0010699,0.68,0.1,0
0.18868,0.021932,0.30325,-1.1504,-0.67381,-0.8505,0.0033359,0,0,-0.38984,0.22971,0,0.0086735,0,0,1.0438,-0.0072745,0,1.0438,-0.67378,-1.1504,-0.8505,89.599,-0.89157,0.41734,-0.0016048,0.7,0.1,0
0.18052,0.02123,0.28236,-1.1502,-0.65212,-0.82306,-0.00091357,0,0,-0.4253,0.22222,0,-0.0023753,0,0,1.0447,-0.0027257,0,1.0447,-0.65212,-1.1502,-0.82306,-89.895,-0.87513,0.43838,-0.002215,0.72,0.1,0
0.17166,0.020427,0.26146,-1.1494,-0.63107,-0.7956,-0.004935,0,0,-0.45996,0.2139,0,-0.012831,0,0,1.045,0.0018824,0,1.045,-0.63102,-1.1495,-0.7956,-89.455,-0.85869,0.45885,-0.002896,0.74,0.1,0
0.16212,0.019544,0.24056,-1.1479,-0.61055,-0.76809,-0.00879,0,0,-0.49374,0.20481,0,-0.022854,0,0,1.0445,0.0066996,0,1.0445,-0.6104,-1.148,-0.76809,-89.063,-0.84218,0.47868,-0.0036415,0.76,0.1,0
0.15191,0.018607,0.21968,-1.1455,-0.59047,-0.74047,-0.012478,0,0,-0.52655,0.195,0,-0.032443,0,0,1.0431,0.011874,0,1.0432,-0.59019,-1.1458,-0.74047,-88.713,-0.82549,0.49778,-0.0044424,0.78,0.1,0
0.14106,0.017643,0.19884,-1.1421,-0.57078,-0.7127,-0.015911,0,0,-0.55822,0.18449,0,-0.041367,0,0,1.0407,0.017541,0,1.0408,-0.57034,-1.1425,-0.7127,-88.406,-0.80853,0.51597,-0.0052861,0.8,0.1,0
0.12959,0.016683,0.17805,-1.1374,-0.55141,-0.6847,-0.018868,0,0,-0.58853,0.17328,0,-0.049057,0,0,1.0368,0.023803,0,1.0371,-0.5508,-1.138,-0.6847,-88.158,-0.79117,0.53304,-0.0061551,0.82,0.1,0
0.11752,0.015772,0.15736,-1.1313,-0.5322,-0.6564,-0.020922,0,0,-0.61732,0.16146,0,-0.054397,0,0,1.0312,0.030657,0,1.0316,-0.53147,-1.132,-0.6564,-88.002,-0.77329,0.54882,-0.0070298,0.84,0.1,0
0.10489,0.01497,0.13681,-1.1239,-0.51293,-0.62784,-0.021427,0,0,-0.64483,0.14939,0,-0.055709,0,0,1.0231,0.037842,0,1.0238,-0.51218,-1.1246,-0.62784,-87.994,-0.75488,0.56358,-0.0079041,0.86,0.1,0
0.091726,0.014348,0.11644,-1.1158,-0.49229,-0.59886,-0.01969,0,0,-0.67199,0.13853,0,-0.051194,0,0,1.0121,0.044429,0,1.0131,-0.49167,-1.1164,-0.59886,-88.193,-0.73564,0.57862,-0.00881,0.88,0.1,0
0.078013,0.013969,0.096321,-1.1079,-0.46826,-0.56916,-0.015926,0,0,-0.70033,0.13117,0,-0.041408,0,0,0.99822,0.048733,0,0.99944,-0.46786,-1.1083,-0.56916,-88.575,-0.7151,0.59625,-0.0098361,0.9,0.1,0
0.063712,0.013846,0.076508,-1.1006,-0.43919,-0.53846,-0.011301,0,0,-0.73085,0.12905,0,-0.029382,0,0,0.98254,0.048657,0,0.98378,-0.439,-1.1008,-0.53846,-89.022,-0.69277,0.61814,-0.01108,0.92,0.1,0
0.048779,0.013909,0.057019,-1.0945,-0.40678,-0.5074,-0.0075619,0,0,-0.76322,0.13081,0,-0.019661,0,0,0.96706,0.042944,0,0.96804,-0.40669,-1.0946,-0.5074,-89.37,-0.66956,0.64346,-0.012561,0.94,0.1,0
0.033183,0.014044,0.037826,-1.0898,-0.37485,-0.47721,-0.0049181,0,0,-0.79633,0.13307,0,-0.012787,0,0,0.95413,0.031797,0,0.95466,-0.37481,-1.0898,-0.47721,-89.606,-0.64728,0.66969,-0.014218,0.96,0.1,0
0.016926,0.014151,0.018854,-1.0865,-0.34509,-0.44832,-0.0026652,0,0,-0.82959,0.1342,0,-0.0069296,0,0,0.94564,0.016828,0,0.94577,-0.34508,-1.0865,-0.44832,-89.794,-0.62663,0.69554,-0.016006,0.98,0.1,0
0,0.014188,0,-1.0617,-0.30738,-0.41073,0.00070967,0,0,-0.84629,0.13435,0,0.0018451,0,0,0.9427,-8.6736e-19,0,0.94268,-0.30738,-1.0617,-0.41073,89.946,-0.59328,0.70834,-0.016951,1,0.1,0
0,0.016836,1,-1.0415,-1.773,-1.8443,0.0071304,0,0,1.0437,0.092792,0,0.018539,0,0,0.81355,1.3513e-15,0,0.81345,-1.0414,-1.773,-1.8443,0.55845,-1.5529,0.76974,0.022748,0,0.12,0
0.020874,0.017206,0.98373,-1.0223,-1.7411,-1.8127,0.022277,0,0,1.0276,0.093167,0,0.05792,0,0,0.81431,-0.032115,0,0.81483,-1.0216,-1.7418,-1.8127,1.7735,-1.5254,0.75814,0.02172,0.02,0.12,0
0.041103,0.018387,0.96743,-1.0267,-1.7186,-1.791,0.048791,0,0,0.99366,0.094106,0,0.12686,0,0,0.81689,-0.067572,0,0.81952,-1.0232,-1.7221,-1.791,4.0135,-1.5121,0.73572,0.019848,0.04,0.12,0
0.06062,0.020617,0.95105,-1.0382,-1.6998,-1.7725,0.083187,0,0,0.9545,0.094442,0,0.21629,0,0,0.82212,-0.11139,0,0.82935,-1.0279,-1.7101,-1.7725,7.058,-1.5035,0.71539,0.018324,0.06,0.12,0
0.079283,0.024195,0.93454,-1.0601,-1.6892,-1.7593,0.15675,0,0,0.90903,0.091126,0,0.40756,0,0,0.84323,-0.17437,0,0.86005,-1.0232,-1.7261,-1.7593,13.243,-1.5029,0.72012,0.019042,0.08,0.12,0
0.096981,0.032354,0.91732,-0.99241,-1.3899,-1.4027,0.2218,0,0,0.67641,-0.020531,0,0.81239,0,0,0.76618,-0.23207,0,0.80067,-0.89278,-1.4896,-1.4027,24.494,-1.2617,0.5638,0.010667,0.1,0.12,0
0.10842,0.044625,0.89432,-1.0086,-1.2115,-1.3368,0.15183,0,0,0.56886,0.080973,0,0.56273,0,0,0.84645,-0.12191,0,0.85555,-0.9138,-1.3063,-1.3368,29.228,-1.1856,0.44282,0.0017155,0.12,0.12,0
0.11974,0.04993,0.87218,-0.98523,-1.1773,-1.3029,0.08202,0,0,0.55061,0.084566,0,0.31392,0,0,0.82837,-0.083735,0,0.83293,-0.94432,-1.2182,-1.3029,24.619,-1.1551,0.37437,-0.00051741,0.14,0.12,0
0.13045,0.053113,0.85014,-0.97772,-1.1473,-1.2751,0.054474,0,0,0.51548,0.087896,0,0.21055,0,0,0.82577,-0.058884,0,0.82806,-0.95011,-1.1749,-1.2751,24.508,-1.1334,0.34604,-0.00093936,0.16,0.12,0
0.14036,0.054762,0.82814,-0.97745,-1.1226,-1.2511,0.035339,0,0,0.47435,0.090965,0,0.13789,0,0,0.82526,-0.040389,0,0.82634,-0.95526,-1.1448,-1.2511,27.704,-1.117,0.32161,-0.0010099,0.18,0.12,0
0.14942,0.055342,0.80613,-0.97846,-1.0991,-1.2279,0.021169,0,0,0.4323,0.093481,0,0.083482,0,0,0.82583,-0.025013,0,0.82624,-0.95385,-1.1237,-1.2279,35.572,-1.1018,0.30104,-0.00093302,0.2,0.12,0
0.15765,0.055071,0.78409,-0.97989,-1.0766,-1.205,0.0090931,0,0,0.39024,0.095311,0,0.036891,0,0,0.82698,-0.010972,0,0.82704,-0.94585,-1.1107,-1.205,42.752,-1.0872,0.28288,-0.00078382,0.22,0.12,0
0.16503,0.054063,0.76202,-0.98142,-1.055,-1.1824,-0.002607,0,0,0.34841,0.096468,0,-0.0082922,0,0,0.82858,0.0030754,0,0.82856,-0.9346,-1.1018,-1.1824,-43.901,-1.0729,0.26692,-0.00059477,0.24,0.12,0
0.17158,0.052342,0.7399,-0.98331,-1.0341,-1.1601,-0.015576,0,0,0.30652,0.097141,0,-0.058224,0,0,0.83073,0.018475,0,0.83091,-0.92211,-1.0953,-1.1601,-42.662,-1.0592,0.25344,-0.00037689,0.26,0.12,0
0.17729,0.049847,0.71772,-0.98625,-1.014,-1.1384,-0.032256,0,0,0.26367,0.097672,0,-0.12184,0,0,0.83388,0.03703,0,0.83473,-0.90788,-1.0924,-1.1384,-42.56,-1.0462,0.24429,-0.00012,0.28,0.12,0
0.18213,0.046344,0.69543,-0.99479,-0.99752,-1.1193,-0.055463,0,0,0.21575,0.098627,0,-0.20947,0,0,0.83894,0.062014,0,0.84132,-0.89368,-1.0986,-1.1193,-43.557,-1.0372,0.2417,0.00021411,0.3,0.12,0
0.18592,0.04155,0.67297,-1.016,-0.98375,-1.1046,-0.10956,0,0,0.1537,0.10049,0,-0.4039,0,0,0.85821,0.10052,0,0.8641,-0.85854,-1.1412,-1.1046,-45.236,-1.0348,0.28349,0.001083,0.32,0.12,0
0.18828,0.032284,0.64966,-0.96641,-1.0574,-1.0944,-0.1705,0,0,0.19581,0.03026,0,-0.62468,0,0,0.77845,0.20841,0,0.80566,-0.83544,-1.1884,-1.0944,-37.556,-1.0394,0.32185,0.0015169,0.34,0.12,0
0.19532,0.02631,0.6321,-1.0531,-1.2298,-1.317,-0.11536,0,0,0.34303,0.1133,0,-0.29995,0,0,0.86587,0.14067,0,0.87616,-0.99615,-1.2868,-1.317,-26.275,-1.2,0.30684,0.0014354,0.36,0.12,0
0.202,0.023396,0.61502,-1.0382,-1.198,-1.2859,-0.056933,0,0,0.32203,0.11421,0,-0.14803,0,0,0.85498,0.076116,0,0.85807,-1.02,-1.2162,-1.2859,-17.731,-1.174,0.23883,0.00050431,0.38,0.12,0
0.2082,0.021449,0.5979,-1.0329,-1.1711,-1.2591,-0.025885,0,0,0.29409,0.11436,0,-0.0673,0,0,0.85985,0.031492,0,0.86028,-1.0282,-1.1758,-1.2591,-10.264,-1.1544,0.20255,0.00019654,0.4,0.12,0
0.21376,0.020304,0.58063,-1.0345,-1.1457,-1.2347,-0.00092511,0,0,0.26019,0.11574,0,-0.0024053,0,0,0.86919,-0.0036798,0,0.86911,-1.0345,-1.1457,-1.2347,-0.47698,-1.1383,0.17369,5.1107e-05,0.42,0.12,0
0.21861,0.019801,0.56313,-1.0405,-1.1191,-1.211,0.020348,0,0,0.2217,0.11945,0,0.052905,0,0,0.88343,-0.033379,0,0.88402,-1.0355,-1.1241,-1.211,13.678,-1.1235,0.15198,2.9016e-06,0.44,0.12,0
0.22263,0.01989,0.54529,-1.0502,-1.0895,-1.1872,0.039984,0,0,0.1781,0.12705,0,0.10396,0,0,0.90313,-0.058353,0,0.90504,-1.0253,-1.1144,-1.1872,31.923,-1.1089,0.14045,2.4616e-05,0.46,0.12,0
0.22573,0.020567,0.527,-1.0648,-1.0545,-1.1628,0.05781,0,0,0.12745,0.14075,0,0.15031,0,0,0.92783,-0.076045,0,0.93103,-1.0016,-1.1177,-1.1628,47.529,-1.094,0.14403,0.00010423,0.48,0.12,0
0.22773,0.021794,0.50818,-1.0825,-1.0086,-1.1355,0.071841,0,0,0.068893,0.16503,0,0.18679,0,0,0.95493,-0.08381,0,0.95871,-0.96473,-1.1263,-1.1355,58.617,-1.0755,0.16637,0.00023409,0.5,0.12,0
0.22848,0.023401,0.48881,-1.1007,-0.95223,-1.1047,0.076489,0,0,0.0051445,0.19821,0,0.19887,0,0,0.98046,-0.080885,0,0.98386,-0.91988,-1.1331,-1.1047,67.076,-1.0526,0.20053,0.00038629,0.52,0.12,0
0.22793,0.02505,0.46896,-1.118,-0.89883,-1.074,0.071409,0,0,-0.057149,0.22772,0,0.18566,0,0,1.0012,-0.071453,0,1.0038,-0.87762,-1.1392,-1.074,73.453,-1.0303,0.23583,0.00050415,0.54,0.12,0
0.2262,0.026435,0.44876,-1.1313,-0.85523,-1.0447,0.060224,0,0,-0.11259,0.24635,0,0.15658,0,0,1.0161,-0.059897,0,1.0179,-0.84267,-1.1439,-1.0447,78.216,-1.0104,0.2659,0.00053249,0.56,0.12,0
0.22343,0.027422,0.42832,-1.1403,-0.82061,-1.0166,0.048424,0,0,-0.16084,0.25478,0,0.1259,0,0,1.0263,-0.049384,0,1.0275,-0.81344,-1.1475,-1.0166,81.573,-0.99251,0.29155,0.00046349,0.58,0.12,0
0.21977,0.028003,0.40771,-1.1454,-0.79049,-0.98847,0.037964,0,0,-0.204,0.25738,0,0.098706,0,0,1.0333,-0.04027,0,1.0341,-0.78647,-1.1494,-0.98847,83.962,-0.97479,0.31499,0.0003121,0.6,0.12,0
0.21527,0.028229,0.38698,-1.1486,-0.76331,-0.96057,0.029184,0,0,-0.24448,0.25643,0,0.075879,0,0,1.0384,-0.032405,0,1.0389,-0.76111,-1.1508,-0.96057,85.693,-0.9575,0.33753,8.0638e-05,0.62,0.12,0
0.20999,0.028154,0.36617,-1.1509,-0.73808,-0.93286,0.021794,0,0,-0.28342,0.25321,0,0.056664,0,0,1.0422,-0.025539,0,1.0425,-0.73693,-1.152,-0.93286,86.986,-0.94061,0.35967,-0.00023128,0.64,0.12,0
0.20393,0.027827,0.34529,-1.1525,-0.71422,-0.90532,0.015461,0,0,-0.32138,0.24843,0,0.040198,0,0,1.0451,-0.019422,0,1.0452,-0.71367,-1.1531,-0.90532,87.982,-0.92402,0.38157,-0.00062487,0.66,0.12,0
0.19713,0.027292,0.32437,-1.1538,-0.69136,-0.87791,0.0098843,0,0,-0.35862,0.24251,0,0.025699,0,0,1.0472,-0.013829,0,1.0473,-0.69115,-1.154,-0.87791,88.776,-0.90768,0.40331,-0.0011009,0.68,0.12,0
0.18959,0.026583,0.30341,-1.1546,-0.66928,-0.85058,0.0048188,0,0,-0.39526,0.23569,0,0.012529,0,0,1.0487,-0.00855,0,1.0487,-0.66923,-1.1547,-0.85058,89.431,-0.89149,0.42486,-0.0016595,0.7,0.12,0
0.18132,0.02573,0.28242,-1.1551,-0.64782,-0.82329,6.865e-05,0,0,-0.43132,0.22811,0,0.00017849,0,0,1.0497,-0.0033889,0,1.0497,-0.64782,-1.1551,-0.82329,89.992,-0.8754,0.4462,-0.0022995,0.72,0.12,0
0.17234,0.02476,0.26142,-1.1551,-0.62689,-0.79601,-0.0045172,0,0,-0.46678,0.21985,0,-0.011745,0,0,1.0501,0.0018478,0,1.0501,-0.62685,-1.1551,-0.79601,-89.51,-0.85932,0.46724,-0.0030186,0.74,0.12,0
0.16265,0.023697,0.24042,-1.1545,-0.60642,-0.76869,-0.0090473,0,0,-0.50154,0.21095,0,-0.023523,0,0,1.0499,0.0073585,0,1.0499,-0.60628,-1.1546,-0.76869,-89.055,-0.8432,0.48787,-0.003812,0.76,0.12,0
0.15227,0.022564,0.21942,-1.1532,-0.58639,-0.74129,-0.013584,0,0,-0.53543,0.20136,0,-0.035318,0,0,1.049,0.013355,0,1.0491,-0.58607,-1.1535,-0.74129,-88.628,-0.82695,0.50792,-0.0046715,0.78,0.12,0
0.14123,0.021388,0.19845,-1.1508,-0.56681,-0.71374,-0.018127,0,0,-0.56819,0.19101,0,-0.047129,0,0,1.0473,0.020068,0,1.0475,-0.56624,-1.1514,-0.71374,-88.224,-0.81045,0.52709,-0.0055826,0.8,0.12,0
0.12955,0.0202,0.17753,-1.147,-0.5477,-0.68594,-0.022563,0,0,-0.59936,0.17971,0,-0.058665,0,0,1.0443,0.02775,0,1.0447,-0.54685,-1.1478,-0.68594,-87.847,-0.79354,0.54492,-0.0065207,0.82,0.12,0
0.11726,0.019041,0.15668,-1.1411,-0.52914,-0.65775,-0.026579,0,0,-0.62833,0.16719,0,-0.069104,0,0,1.0394,0.036655,0,1.0401,-0.52799,-1.1422,-0.65775,-87.518,-0.77599,0.56074,-0.0074463,0.84,0.12,0
0.10441,0.017973,0.13595,-1.1323,-0.51114,-0.62899,-0.029327,0,0,-0.65431,0.1532,0,-0.076249,0,0,1.0316,0.046925,0,1.0326,-0.50976,-1.1337,-0.62899,-87.303,-0.75747,0.57368,-0.0083024,0.86,0.12,0
0.091086,0.017098,0.11542,-1.1219,-0.4942,-0.60024,-0.029428,0,0,-0.67809,0.13785,0,-0.076512,0,0,1.0192,0.058179,0,1.0209,-0.49282,-1.1232,-0.60024,-87.322,-0.73876,0.58415,-0.0090817,0.88,0.12,0
0.077291,0.01654,0.095188,-1.1104,-0.47376,-0.57043,-0.02532,0,0,-0.70195,0.12568,0,-0.065833,0,0,1.0014,0.067245,0,1.0037,-0.47275,-1.1114,-0.57043,-87.726,-0.7182,0.59584,-0.0098875,0.9,0.12,0
0.063008,0.016364,0.075364,-1.0991,-0.44508,-0.53861,-0.019423,0,0,-0.72859,0.12158,0,-0.050499,0,0,0.97962,0.06988,0,0.98218,-0.4445,-1.0996,-0.53861,-88.3,-0.69425,0.61352,-0.010926,0.92,0.12,0
0.048147,0.016469,0.056004,-1.0885,-0.41018,-0.50562,-0.014067,0,0,-0.75779,0.12407,0,-0.036574,0,0,0.95726,0.062257,0,0.95933,-0.40988,-1.0888,-0.50562,-88.813,-0.66811,0.6365,-0.01224,0.94,0.12,0
0.032696,0.016649,0.037074,-1.0801,-0.37766,-0.47441,-0.010465,0,0,-0.78742,0.12577,0,-0.027208,0,0,0.93867,0.045723,0,0.93978,-0.37751,-1.0803,-0.47441,-89.147,-0.64406,0.65968,-0.013678,0.96,0.12,0
0.01665,0.016772,0.018457,-1.0745,-0.34978,-0.44575,-0.0059409,0,0,-0.81741,0.12476,0,-0.015446,0,0,0.92685,0.023705,0,0.92711,-0.34973,-1.0746,-0.44575,-89.53,-0.62335,0.68192,-0.015204,0.98,0.12,0
0,0.016806,0,-1.0491,-0.31327,-0.40871,0.000657,0,0,-0.83252,0.12408,0,0.0017082,0,0,0.92285,-1.7347e-17,0,0.9228,-0.31327,-1.0491,-0.40871,89.949,-0.59037,0.69307,-0.01601,1,0.12,0
0,0.018459,1,-1.0261,-1.7938,-1.846,0.0069867,0,0,1.0658,0.067825,0,0.018165,0,0,0.78073,-1.818e-15,0,0.78063,-1.0261,-1.7939,-1.846,0.5214,-1.5553,0.79514,0.025447,0,0.14,0
0.021316,0.018822,0.98438,-1.0065,-1.7643,-1.8156,0.023988,0,0,1.0519,0.066725,0,0.062368,0,0,0.77974,-0.031976,0,0.78027,-1.0057,-1.7651,-1.8156,1.8112,-1.5288,0.78583,0.024576,0.02,0.14,0
0.042075,0.019983,0.96881,-1.0058,-1.7464,-1.7945,0.051679,0,0,1.0253,0.0625,0,0.13437,0,0,0.77601,-0.066999,0,0.77874,-1.0022,-1.75,-1.7945,3.9724,-1.5155,0.771,0.023275,0.04,0.14,0
0.062328,0.022067,0.95334,-1.0014,-1.7352,-1.7743,0.08922,0,0,1.0048,0.050896,0,0.23197,0,0,0.76678,-0.10939,0,0.77428,-0.99074,-1.7459,-1.7743,6.8343,-1.5036,0.76975,0.023317,0.06,0.14,0
0.082265,0.025561,0.93814,-0.94621,-1.7243,-1.7393,0.13062,0,0,1.031,0.019526,0,0.3396,0,0,0.72605,-0.16767,0,0.74432,-0.92486,-1.7456,-1.7393,9.2798,-1.4699,0.81759,0.028064,0.08,0.14,0
0.10357,0.029385,0.9243,-0.91115,-1.4855,-1.4122,0.15163,0,0,0.77019,-0.12697,0,0.56622,0,0,0.66164,-0.1977,0,0.6946,-0.86572,-1.5309,-1.4122,17.312,-1.2696,0.61649,0.019234,0.1,0.14,0
0.11307,0.038077,0.89904,-0.86629,-1.1632,-1.0584,0.10795,0,0,0.49944,-0.27264,0,0.56136,0,0,0.61053,-0.10368,0,0.61928,-0.8312,-1.1983,-1.0584,18.01,-1.0293,0.32094,0.00067513,0.12,0.14,0
0.12355,0.043632,0.87546,-0.8331,-1.141,-1.0299,0.074409,0,0,0.51182,-0.28867,0,0.38693,0,0,0.58201,-0.076294,0,0.58693,-0.81606,-1.158,-1.0299,12.899,-1.0013,0.29924,0.00057585,0.14,0.14,0
0.13355,0.046852,0.85248,-0.82379,-1.1224,-1.0101,0.051049,0,0,0.4844,-0.29197,0,0.26546,0,0,0.57123,-0.05585,0,0.57391,-0.8153,-1.1309,-1.0101,9.4383,-0.98543,0.27579,0.00042327,0.16,0.14,0
0.14292,0.048672,0.82976,-0.81757,-1.1016,-0.99063,0.034862,0,0,0.44996,-0.28849,0,0.18128,0,0,0.56668,-0.039429,0,0.56802,-0.81335,-1.1058,-0.99063,6.8964,-0.96993,0.25517,0.00030535,0.18,0.14,0
0.15154,0.049429,0.80715,-0.81392,-1.0804,-0.97186,0.021918,0,0,0.41063,-0.28209,0,0.11397,0,0,0.56502,-0.02527,0,0.56555,-0.81213,-1.0821,-0.97186,4.6715,-0.95538,0.23514,0.00020749,0.2,0.14,0
0.15935,0.049343,0.78456,-0.81183,-1.0588,-0.95348,0.010676,0,0,0.36829,-0.27391,0,0.055513,0,0,0.56517,-0.012126,0,0.56527,-0.81137,-1.0593,-0.95348,2.4703,-0.94138,0.21547,0.00012861,0.22,0.14,0
0.16628,0.048523,0.76194,-0.81112,-1.037,-0.93542,-0.00019097,0,0,0.32317,-0.26422,0,-0.00099307,0,0,0.56687,0.0010283,0,0.56685,-0.81112,-1.037,-0.93542,-0.048433,-0.92786,0.19598,6.6786e-05,0.24,0.14,0
0.17227,0.047003,0.73921,-0.81215,-1.0149,-0.91771,-0.011926,0,0,0.27446,-0.25261,0,-0.062014,0,0,0.5704,0.015227,0,0.57057,-0.81145,-1.0156,-0.91771,-3.3552,-0.91491,0.17682,2.0229e-05,0.26,0.14,0
0.17725,0.044727,0.7163,-0.81619,-0.99214,-0.90065,-0.025829,0,0,0.2196,-0.23787,0,-0.13431,0,0,0.57681,0.031746,0,0.57764,-0.81247,-0.99585,-0.90065,-8.1811,-0.90299,0.15885,-1.3649e-05,0.28,0.14,0
0.18106,0.041572,0.69307,-0.82491,-0.96759,-0.88428,-0.044806,0,0,0.15438,-0.21661,0,-0.23299,0,0,0.58946,0.052422,0,0.59174,-0.812,-0.9805,-0.88428,-16.065,-0.89226,0.14641,-3.9173e-05,0.3,0.14,0
0.18343,0.037017,0.66915,-0.8562,-0.94594,-0.87522,-0.070155,0,0,0.049433,-0.18388,0,-0.36481,0,0,0.6203,0.080391,0,0.6255,-0.8178,-0.98435,-0.87522,-28.7,-0.89245,0.14654,-8.1991e-05,0.32,0.14,0
0.18304,0.030859,0.64344,-0.89308,-1.1224,-1.0872,-0.10563,0,0,0.24748,-0.061029,0,-0.39367,0,0,0.67579,0.16568,0,0.69961,-0.83596,-1.1796,-1.0872,-28.359,-1.0343,0.31477,0.0023882,0.34,0.14,0
0.19333,0.028,0.62926,-0.93291,-1.255,-1.2856,-0.087455,0,0,0.45855,0.039812,0,-0.22738,0,0,0.74783,0.12487,0,0.75741,-0.9107,-1.2772,-1.2856,-14.251,-1.1579,0.37081,0.0026141,0.36,0.14,0
0.20138,0.025182,0.61353,-0.98765,-1.2275,-1.2781,-0.053533,0,0,0.37755,0.06574,0,-0.13919,0,0,0.79808,0.064864,0,0.80048,-0.97624,-1.2389,-1.2781,-12.027,-1.1644,0.28428,0.0011048,0.38,0.14,0
0.20843,0.023396,0.59734,-1.0017,-1.1967,-1.2568,-0.020193,0,0,0.33174,0.078209,0,-0.052501,0,0,0.81784,0.020361,0,0.81796,-0.99959,-1.1987,-1.2568,-5.8498,-1.1517,0.23369,0.0005214,0.4,0.14,0
0.21465,0.022342,0.58082,-1.0117,-1.1684,-1.2349,0.0064579,0,0,0.29011,0.086335,0,0.01679,0,0,0.83447,-0.016992,0,0.83455,-1.0114,-1.1687,-1.2349,2.3552,-1.1383,0.19878,0.00025799,0.42,0.14,0
0.22004,0.021955,0.56396,-1.0224,-1.1405,-1.2128,0.030757,0,0,0.24758,0.094042,0,0.079968,0,0,0.85315,-0.051141,0,0.85462,-1.0148,-1.148,-1.2128,13.756,-1.1252,0.17483,0.00015275,0.44,0.14,0
0.22455,0.022228,0.54669,-1.0376,-1.1121,-1.1916,0.054448,0,0,0.20019,0.10332,0,0.14156,0,0,0.87883,-0.083822,0,0.88284,-1.0089,-1.1409,-1.1916,27.808,-1.1138,0.16335,0.00015317,0.46,0.14,0
0.22804,0.023207,0.52881,-1.0569,-1.0756,-1.1686,0.079093,0,0,0.14513,0.12087,0,0.20564,0,0,0.91351,-0.11242,0,0.92062,-0.98661,-1.1459,-1.1686,41.637,-1.1004,0.17174,0.00024495,0.48,0.14,0
0.23036,0.025004,0.51015,-1.0841,-1.0251,-1.1429,0.097988,0,0,0.076465,0.15313,0,0.25477,0,0,0.95346,-0.1205,0,0.96129,-0.95229,-1.1569,-1.1429,53.374,-1.084,0.19802,0.00039204,0.5,0.14,0
0.2311,0.027421,0.49067,-1.106,-0.94416,-1.1057,0.10323,0,0,-0.00038158,0.21003,0,0.2684,0,0,0.98962,-0.11047,0,0.99589,-0.89392,-1.1563,-1.1057,64.047,-1.052,0.24108,0.00061439,0.52,0.14,0
0.23034,0.029756,0.47057,-1.1266,-0.87922,-1.0723,0.087522,0,0,-0.070601,0.25103,0,0.22756,0,0,1.015,-0.08762,0,1.0187,-0.85138,-1.1545,-1.0723,72.36,-1.026,0.27149,0.00071944,0.54,0.14,0
0.22828,0.031534,0.45007,-1.1424,-0.84096,-1.0451,0.069188,0,0,-0.12656,0.26537,0,0.17989,0,0,1.0296,-0.069901,0,1.0319,-0.82585,-1.1576,-1.0451,77.673,-1.0095,0.2922,0.00067108,0.56,0.14,0
0.22528,0.03266,0.42938,-1.1478,-0.80886,-1.0164,0.053715,0,0,-0.1708,0.26976,0,0.13966,0,0,1.0375,-0.056107,0,1.039,-0.80055,-1.1561,-1.0164,81.206,-0.99099,0.31022,0.00055305,0.58,0.14,0
0.22145,0.033267,0.40857,-1.1506,-0.78094,-0.98802,0.041835,0,0,-0.2113,0.2692,0,0.10877,0,0,1.0427,-0.045081,0,1.0437,-0.77627,-1.1552,-0.98802,83.622,-0.97317,0.32895,0.00036903,0.6,0.14,0
0.21682,0.033453,0.38767,-1.1525,-0.7554,-0.96006,0.032388,0,0,-0.25023,0.26605,0,0.084209,0,0,1.0464,-0.035998,0,1.047,-0.75278,-1.1552,-0.96006,85.368,-0.956,0.34853,0.00011381,0.62,0.14,0
0.21144,0.033299,0.36671,-1.1543,-0.73138,-0.93242,0.024644,0,0,-0.28845,0.26135,0,0.064075,0,0,1.0492,-0.028287,0,1.0495,-0.72995,-1.1557,-0.93242,86.676,-0.93937,0.36888,-0.00021829,0.64,0.14,0
0.20529,0.032868,0.34571,-1.156,-0.70837,-0.90501,0.018059,0,0,-0.32624,0.25562,0,0.046954,0,0,1.0513,-0.021538,0,1.0515,-0.70765,-1.1567,-0.90501,87.693,-0.92311,0.38982,-0.00063181,0.66,0.14,0
0.19839,0.032208,0.32466,-1.1575,-0.6861,-0.87775,0.012251,0,0,-0.36371,0.24915,0,0.031853,0,0,1.0529,-0.015434,0,1.053,-0.68578,-1.1579,-0.87775,88.512,-0.90713,0.41119,-0.0011303,0.68,0.14,0
0.19074,0.031359,0.30359,-1.159,-0.66438,-0.8506,0.0069331,0,0,-0.4009,0.24209,0,0.018026,0,0,1.0542,-0.0097088,0,1.0542,-0.66428,-1.1591,-0.8506,89.197,-0.89132,0.43284,-0.0017165,0.7,0.14,0
0.18235,0.030354,0.28249,-1.1603,-0.64311,-0.82351,0.0018836,0,0,-0.43779,0.23452,0,0.0048975,0,0,1.0551,-0.004126,0,1.0551,-0.6431,-1.1603,-0.82351,89.791,-0.87563,0.45466,-0.002392,0.72,0.14,0
0.17323,0.029221,0.26138,-1.1613,-0.62223,-0.79645,-0.003076,0,0,-0.47433,0.22649,0,-0.0079977,0,0,1.0557,0.0015438,0,1.0557,-0.62221,-1.1613,-0.79645,-89.673,-0.86,0.47653,-0.0031573,0.74,0.14,0
0.16338,0.027982,0.24027,-1.162,-0.6017,-0.76938,-0.0080954,0,0,-0.51043,0.21799,0,-0.021048,0,0,1.056,0.007539,0,1.056,-0.60158,-1.1621,-0.76938,-89.172,-0.84437,0.49832,-0.0040113,0.76,0.14,0
0.15281,0.026662,0.21915,-1.1622,-0.58153,-0.74228,-0.013304,0,0,-0.54595,0.20897,0,-0.03459,0,0,1.0558,0.014127,0,1.0559,-0.58123,-1.1625,-0.74228,-88.688,-0.82868,0.51985,-0.0049495,0.78,0.14,0
0.14154,0.025283,0.19803,-1.1617,-0.56176,-0.71507,-0.018814,0,0,-0.58061,0.1993,0,-0.048916,0,0,1.0551,0.02163,0,1.0553,-0.56117,-1.1623,-0.71507,-88.206,-0.81284,0.54084,-0.0059617,0.8,0.14,0
0.12959,0.023872,0.17694,-1.1599,-0.54248,-0.68766,-0.024718,0,0,-0.61393,0.18874,0,-0.064268,0,0,1.0534,0.030461,0,1.0539,-0.54149,-1.1609,-0.68766,-87.711,-0.79668,0.5608,-0.007026,0.82,0.14,0
0.11698,0.02246,0.1559,-1.156,-0.52383,-0.65984,-0.031014,0,0,-0.64499,0.17681,0,-0.080636,0,0,1.0504,0.041187,0,1.0512,-0.52231,-1.1575,-0.65984,-87.198,-0.77989,0.57882,-0.0080959,0.84,0.14,0
0.10379,0.021098,0.13493,-1.1482,-0.50613,-0.63124,-0.037507,0,0,-0.6721,0.16265,0,-0.097519,0,0,1.0446,0.054616,0,1.046,-0.50394,-1.1504,-0.63124,-86.668,-0.76187,0.59317,-0.0090772,0.86,0.14,0
0.090098,0.019862,0.11411,-1.1329,-0.48934,-0.60079,-0.042309,0,0,-0.69179,0.14489,0,-0.11,0,0,1.0324,0.071838,0,1.0349,-0.48657,-1.1357,-0.60079,-86.255,-0.74103,0.60024,-0.0097648,0.88,0.14,0
0.076114,0.018996,0.093631,-1.1179,-0.48,-0.573,-0.042501,0,0,-0.70836,0.1209,0,-0.1105,0,0,1.0099,0.093803,0,1.0144,-0.47718,-1.1207,-0.573,-86.205,-0.72363,0.60137,-0.010221,0.9,0.14,0
0.061763,0.018709,0.073713,-1.0991,-0.45452,-0.5398,-0.033578,0,0,-0.72708,0.11086,0,-0.087302,0,0,0.97755,0.10244,0,0.9831,-0.45277,-1.1008,-0.5398,-87.026,-0.6978,0.60923,-0.010819,0.92,0.14,0
0.047031,0.018872,0.054529,-1.078,-0.41246,-0.50168,-0.02805,0,0,-0.74927,0.11599,0,-0.07293,0,0,0.94291,0.092961,0,0.94763,-0.41128,-1.0792,-0.50168,-87.591,-0.66406,0.62765,-0.011816,0.94,0.14,0
0.031792,0.019074,0.035997,-1.0649,-0.38527,-0.47105,-0.02132,0,0,-0.772,0.11151,0,-0.055432,0,0,0.91558,0.063655,0,0.91775,-0.3846,-1.0656,-0.47105,-88.205,-0.6404,0.64211,-0.012771,0.96,0.14,0
0.016151,0.019142,0.017906,-1.053,-0.35929,-0.44159,-0.011976,0,0,-0.79481,0.10698,0,-0.031137,0,0,0.89992,0.031639,0,0.90039,-0.35909,-1.0532,-0.44159,-89.011,-0.61795,0.65675,-0.013778,0.98,0.14,0
0,0.019151,0,-1.0264,-0.32435,-0.40523,0.00018735,0,0,-0.80754,0.10515,0,0.00048711,0,0,0.89529,-6.9389e-18,0,0.8952,-0.32435,-1.0264,-0.40523,89.985,-0.58533,0.66532,-0.014375,1,0.14,0
0,0.019549,1,-1.0062,-1.815,-1.8463,0.0062846,0,0,1.0922,0.040764,0,0.01634,0,0,0.7496,4.4929e-16,0,0.7495,-1.0061,-1.815,-1.8463,0.44516,-1.5558,0.82502,0.028701,0,0.16,0
0.021845,0.019875,0.98501,-0.98549,-1.7875,-1.8169,0.023118,0,0,1.0808,0.03824,0,0.060108,0,0,0.74731,-0.029115,0,0.74778,-0.98483,-1.7881,-1.8169,1.6498,-1.53,0.81808,0.028002,0.02,0.16,0
0.043233,0.020887,0.97011,-0.97893,-1.7733,-1.7958,0.048776,0,0,1.0619,0.029172,0,0.12682,0,0,0.73948,-0.060012,0,0.74181,-0.97594,-1.7763,-1.7958,3.5003,-1.516,0.81029,0.027272,0.04,0.16,0
0.064322,0.022653,0.95543,-0.95934,-1.7663,-1.7731,0.076104,0,0,1.0579,0.0089107,0,0.19787,0,0,0.72145,-0.094415,0,0.72751,-0.95223,-1.7734,-1.7731,5.3411,-1.4996,0.82101,0.028423,0.06,0.16,0
0.085549,0.024976,0.94125,-0.9357,-1.7889,-1.7586,0.098816,0,0,1.0698,-0.039349,0,0.25692,0,0,0.68902,-0.13267,0,0.70193,-0.92441,-1.8002,-1.7586,6.5209,-1.4944,0.85576,0.031931,0.08,0.16,0
0.10711,0.027275,0.92787,-0.89566,-1.4576,-1.4019,0.098066,0,0,0.77706,-0.096608,0,0.37451,0,0,0.65018,-0.11327,0,0.66115,-0.87306,-1.4802,-1.4019,13.213,-1.2517,0.57322,0.017719,0.1,0.16,0
0.11663,0.033719,0.90262,-0.8593,-1.12,-1.0451,0.083041,0,0,0.48312,-0.19483,0,0.43181,0,0,0.61981,-0.075873,0,0.62456,-0.8351,-1.1442,-1.0451,16.247,-1.0082,0.27341,0.00060355,0.12,0.16,0
0.12644,0.038383,0.87828,-0.84069,-1.1195,-1.0272,0.062228,0,0,0.48489,-0.23993,0,0.32359,0,0,0.60008,-0.063188,0,0.60341,-0.82744,-1.1327,-1.0272,12.029,-0.99579,0.26856,0.00050203,0.14,0.16,0
0.13603,0.041434,0.85461,-0.82891,-1.1056,-1.0077,0.044857,0,0,0.46475,-0.25466,0,0.23325,0,0,0.58738,-0.049207,0,0.58942,-0.82182,-1.1127,-1.0077,8.9821,-0.98073,0.25513,0.00039164,0.16,0.16,0
0.14503,0.043223,0.83129,-0.82299,-1.0888,-0.98918,0.031115,0,0,0.43208,-0.25896,0,0.1618,0,0,0.58075,-0.036301,0,0.58187,-0.8194,-1.0924,-0.98918,6.5888,-0.96698,0.23873,0.00028478,0.18,0.16,0
0.15331,0.044059,0.80815,-0.81939,-1.0696,-0.97078,0.019927,0,0,0.39362,-0.257,0,0.10362,0,0,0.57786,-0.024408,0,0.57835,-0.81781,-1.0712,-0.97078,4.5246,-0.95326,0.22101,0.00019401,0.2,0.16,0
0.16077,0.044114,0.78507,-0.81772,-1.049,-0.95255,0.010079,0,0,0.35058,-0.25081,0,0.052412,0,0,0.57762,-0.013059,0,0.57774,-0.81728,-1.0495,-0.95255,2.4904,-0.93976,0.20199,0.00011915,0.22,0.16,0
0.16733,0.043494,0.76194,-0.81788,-1.0271,-0.93447,0.00069658,0,0,0.30315,-0.24091,0,0.0036222,0,0,0.57974,-0.0017018,0,0.57972,-0.81787,-1.0271,-0.93447,0.19073,-0.92649,0.18162,6.048e-05,0.24,0.16,0
0.1729,0.042238,0.73869,-0.82024,-1.0038,-0.91657,-0.0090071,0,0,0.25045,-0.22692,0,-0.046837,0,0,0.58453,0.010217,0,0.58461,-0.8198,-1.0043,-0.91657,-2.8018,-0.91355,0.15983,1.7796e-05,0.26,0.16,0
0.17735,0.040333,0.71518,-0.82551,-0.97852,-0.8988,-0.019891,0,0,0.19054,-0.20727,0,-0.10343,0,0,0.59311,0.023188,0,0.59356,-0.82297,-0.98106,-0.8988,-7.2872,-0.90094,0.13695,-9.2873e-06,0.28,0.16,0
0.18052,0.037679,0.69124,-0.83672,-0.9507,-0.88185,-0.032354,0,0,0.11732,-0.17903,0,-0.16824,0,0,0.60794,0.037313,0,0.60911,-0.82818,-0.95925,-0.88185,-14.792,-0.88976,0.11413,-2.3471e-05,0.3,0.16,0
0.18204,0.034195,0.66654,-0.85318,-0.91275,-0.86305,-0.045923,0,0,0.025669,-0.12923,0,-0.2388,0,0,0.63017,0.050317,0,0.63234,-0.82823,-0.9377,-0.86305,-28.515,-0.87633,0.096877,-2.7175e-05,0.32,0.16,0
0.18155,0.029843,0.64082,-0.88308,-1.106,-1.0773,-0.053364,0,0,0.24634,-0.049692,0,-0.2051,0,0,0.66452,0.075235,0,0.66955,-0.85634,-1.1327,-1.0773,-24.742,-1.0221,0.25971,0.0019498,0.34,0.16,0
0.1919,0.027902,0.6271,-0.92083,-1.3075,-1.2956,-0.052117,0,0,0.4872,-0.015474,0,-0.1355,0,0,0.70983,0.081339,0,0.71485,-0.91393,-1.3144,-1.2956,-7.5432,-1.1746,0.39141,0.0030559,0.36,0.16,0
0.20104,0.026025,0.61243,-0.94497,-1.2558,-1.2727,-0.032531,0,0,0.426,0.021911,0,-0.084581,0,0,0.75047,0.040993,0,0.75154,-0.9416,-1.2592,-1.2727,-5.911,-1.1578,0.32453,0.0017452,0.38,0.16,0
0.20894,0.024577,0.59708,-0.9693,-1.2227,-1.2547,-0.0075793,0,0,0.371,0.041565,0,-0.019706,0,0,0.77799,0.0030765,0,0.77791,-0.96907,-1.2229,-1.2547,-1.7116,-1.1489,0.27114,0.00097659,0.4,0.16,0
0.21588,0.023757,0.58131,-0.98503,-1.1928,-1.2347,0.01827,0,0,0.32452,0.054402,0,0.047502,0,0,0.79769,-0.032985,0,0.79828,-0.98344,-1.1944,-1.2347,4.9869,-1.1375,0.23372,0.00059064,0.42,0.16,0
0.22192,0.023563,0.56518,-1.0001,-1.1654,-1.2148,0.044081,0,0,0.27914,0.06423,0,0.11461,0,0,0.8166,-0.069678,0,0.81946,-0.98909,-1.1764,-1.2148,14.035,-1.1268,0.20921,0.00041742,0.44,0.16,0
0.22704,0.024023,0.54865,-1.0173,-1.1385,-1.1954,0.073109,0,0,0.2315,0.073956,0,0.19008,0,0,0.84185,-0.11024,0,0.84893,-0.98295,-1.1729,-1.1954,25.174,-1.1171,0.20212,0.00040638,0.46,0.16,0
0.23118,0.025401,0.5315,-1.0559,-1.1192,-1.184,0.1079,0,0,0.16659,0.084259,0,0.28053,0,0,0.89115,-0.15933,0,0.90533,-0.9751,-1.2,-1.184,36.822,-1.1197,0.21735,0.00051777,0.48,0.16,0
0.23371,0.027919,0.513,-1.0932,-1.0516,-1.1564,0.14871,0,0,0.082269,0.13625,0,0.38664,0,0,0.95687,-0.20723,0,0.98058,-0.92224,-1.2225,-1.1564,48.974,-1.1004,0.27331,0.00084535,0.5,0.16,0
0.23447,0.031803,0.49323,-1.109,-0.89339,-1.0939,0.12994,0,0,-0.019532,0.26071,0,0.33785,0,0,1.0133,-0.1338,0,1.0217,-0.83234,-1.17,-1.0939,64.838,-1.0321,0.30678,0.0011811,0.52,0.16,0
0.23292,0.035091,0.47247,-1.1525,-0.85924,-1.076,0.098473,0,0,-0.09945,0.28177,0,0.25603,0,0,1.0418,-0.098458,0,1.0463,-0.82924,-1.1825,-1.076,73.057,-1.0292,0.31385,0.00099344,0.54,0.16,0
0.23049,0.03705,0.45156,-1.1534,-0.82467,-1.045,0.072786,0,0,-0.14099,0.28642,0,0.18924,0,0,1.0476,-0.076097,0,1.0504,-0.80928,-1.1688,-1.045,78.059,-1.0077,0.31637,0.00082667,0.56,0.16,0
0.22728,0.038212,0.43056,-1.1533,-0.79641,-1.0155,0.05652,0,0,-0.17921,0.2848,0,0.14695,0,0,1.0511,-0.060191,0,1.0528,-0.78768,-1.1621,-1.0155,81.213,-0.98841,0.32677,0.0006544,0.58,0.16,0
0.22332,0.038771,0.40951,-1.1539,-0.77105,-0.98698,0.044505,0,0,-0.21693,0.28071,0,0.11571,0,0,1.0534,-0.048032,0,1.0545,-0.76595,-1.159,-0.98698,83.455,-0.97063,0.34124,0.00043709,0.6,0.16,0
0.21861,0.03887,0.38842,-1.1551,-0.74733,-0.95915,0.035185,0,0,-0.25471,0.27536,0,0.09148,0,0,1.0552,-0.038265,0,1.0559,-0.74431,-1.1581,-0.95915,85.104,-0.95385,0.35843,0.0001571,0.62,0.16,0
0.21313,0.038607,0.3673,-1.1568,-0.72456,-0.9317,0.02755,0,0,-0.29259,0.26928,0,0.07163,0,0,1.0567,-0.030101,0,1.0571,-0.72281,-1.1585,-0.9317,86.368,-0.93768,0.37744,-0.00019663,0.64,0.16,0
0.2069,0.038052,0.34616,-1.1588,-0.70241,-0.90451,0.021027,0,0,-0.33054,0.26273,0,0.054671,0,0,1.0579,-0.023027,0,1.0582,-0.70145,-1.1597,-0.90451,87.367,-0.9219,0.39775,-0.00063208,0.66,0.16,0
0.19991,0.037258,0.32499,-1.1609,-0.6807,-0.87748,0.015227,0,0,-0.3685,0.25581,0,0.039591,0,0,1.059,-0.016668,0,1.0592,-0.68022,-1.1614,-0.87748,88.186,-0.90637,0.41898,-0.0011556,0.68,0.16,0
0.19216,0.036266,0.30379,-1.1632,-0.65931,-0.85055,0.0098678,0,0,-0.40646,0.24862,0,0.025656,0,0,1.06,-0.010728,0,1.0601,-0.65912,-1.1634,-0.85055,88.879,-0.89102,0.44093,-0.0017726,0.7,0.16,0
0.18366,0.035111,0.28258,-1.1655,-0.63818,-0.8237,0.0047284,0,0,-0.44437,0.24117,0,0.012294,0,0,1.0609,-0.004947,0,1.0609,-0.63814,-1.1656,-0.8237,89.486,-0.8758,0.4634,-0.0024879,0.72,0.16,0
0.17439,0.03382,0.26136,-1.1678,-0.61728,-0.79689,-0.00037678,0,0,-0.48222,0.23349,0,-0.00097964,0,0,1.0617,0.00092313,0,1.0617,-0.61728,-1.1678,-0.79689,-89.961,-0.86067,0.48629,-0.0033058,0.74,0.16,0
0.16437,0.032416,0.24011,-1.1701,-0.5966,-0.77012,-0.0056173,0,0,-0.51995,0.22557,0,-0.014605,0,0,1.0625,0.0071435,0,1.0625,-0.59655,-1.1701,-0.77012,-89.439,-0.8456,0.50949,-0.0042302,0.76,0.16,0
0.15359,0.030923,0.21886,-1.1722,-0.57615,-0.74337,-0.011165,0,0,-0.55751,0.21739,0,-0.029028,0,0,1.0631,0.014014,0,1.0632,-0.57594,-1.1724,-0.74337,-88.927,-0.83058,0.53289,-0.0052638,0.78,0.16,0
0.14207,0.02936,0.19759,-1.1741,-0.55595,-0.71662,-0.017216,0,0,-0.59477,0.20886,0,-0.044762,0,0,1.0636,0.021911,0,1.0638,-0.55548,-1.1746,-0.71662,-88.406,-0.81557,0.55635,-0.006407,0.8,0.16,0
0.1298,0.027749,0.17631,-1.1756,-0.53611,-0.68983,-0.024028,0,0,-0.6315,0.19983,0,-0.062473,0,0,1.0638,0.031353,0,1.0643,-0.53521,-1.1765,-0.68983,-87.851,-0.80051,0.57966,-0.0076552,0.82,0.16,0
0.11681,0.026114,0.15504,-1.1761,-0.51676,-0.6629,-0.032004,0,0,-0.66718,0.18998,0,-0.08321,0,0,1.0636,0.043132,0,1.0644,-0.51521,-1.1777,-0.6629,-87.228,-0.78526,0.60235,-0.0089903,0.84,0.16,0
0.10311,0.024479,0.13377,-1.1743,-0.49809,-0.63549,-0.041637,0,0,-0.70046,0.17862,0,-0.10826,0,0,1.0622,0.058599,0,1.0638,-0.49554,-1.1769,-0.63549,-86.49,-0.76929,0.62324,-0.010351,0.86,0.16,0
0.088788,0.022894,0.11255,-1.1658,-0.48024,-0.60635,-0.054373,0,0,-0.72723,0.16394,0,-0.14137,0,0,1.0584,0.080415,0,1.0614,-0.47595,-1.17,-0.60635,-85.493,-0.75078,0.63895,-0.011539,0.88,0.16,0
0.074023,0.021376,0.091436,-1.1275,-0.45755,-0.56695,-0.065404,0,0,-0.72869,0.14221,0,-0.17005,0,0,1.032,0.11492,0,1.0381,-0.45122,-1.1338,-0.56695,-84.476,-0.71732,0.63271,-0.011555,0.9,0.16,0
0.05964,0.020798,0.071267,-1.1037,-0.46851,-0.54292,-0.077014,0,0,-0.72896,0.096727,0,-0.20024,0,0,0.97877,0.18551,0,0.99761,-0.45931,-1.1129,-0.54292,-83.184,-0.70503,0.61602,-0.011264,0.92,0.16,0
0.044865,0.021108,0.052285,-1.0682,-0.43171,-0.50227,-0.054325,0,0,-0.73576,0.091729,0,-0.14125,0,0,0.91847,0.13292,0,0.92795,-0.42711,-1.0728,-0.50227,-85.157,-0.66741,0.61163,-0.011155,0.94,0.16,0
0.03021,0.021109,0.034528,-1.0324,-0.4005,-0.4644,-0.03853,0,0,-0.73843,0.083078,0,-0.10018,0,0,0.87735,0.0813,0,0.88092,-0.39816,-1.0348,-0.4644,-86.524,-0.63244,0.6062,-0.010982,0.96,0.16,0
0.015328,0.021051,0.017191,-1.0153,-0.37515,-0.43432,-0.019784,0,0,-0.75524,0.076917,0,-0.051439,0,0,0.86319,0.038726,0,0.86391,-0.37454,-1.0159,-0.43432,-88.231,-0.60825,0.61364,-0.011489,0.98,0.16,0
0,0.021012,0,-0.98846,-0.3413,-0.39893,-0.00075634,0,0,-0.76639,0.074914,0,-0.0019665,0,0,0.85957,3.4694e-18,0,0.85943,-0.3413,-0.98846,-0.39893,-89.933,-0.57623,0.62035,-0.011905,1,0.16,0
0,0.02009,1,-0.98516,-1.8349,-1.846,0.0050457,0,0,1.1191,0.014474,0,0.013119,0,0,0.7225,1.9897e-15,0,0.72243,-0.98513,-1.8349,-1.846,0.34021,-1.5554,0.85539,0.032127,0,0.18,0
0.022382,0.020352,0.98555,-0.96423,-1.809,-1.8175,0.01993,0,0,1.1093,0.011118,0,0.051817,0,0,0.71973,-0.024516,0,0.72008,-0.96376,-1.8094,-1.8175,1.3508,-1.5302,0.84973,0.031502,0.02,0.18,0
0.04437,0.02115,0.97121,-0.95492,-1.7967,-1.7967,0.040152,0,0,1.0943,2.7643e-05,0,0.1044,0,0,0.71071,-0.049421,0,0.71238,-0.95301,-1.7986,-1.7967,2.7248,-1.5161,0.84462,0.030946,0.04,0.18,0
0.066154,0.022423,0.95712,-0.93999,-1.7946,-1.7775,0.058621,0,0,1.0888,-0.022204,0,0.15241,0,0,0.69412,-0.074261,0,0.69809,-0.93599,-1.7986,-1.7775,3.9059,-1.504,0.85224,0.031726,0.06,0.18,0
0.08792,0.023987,0.94345,-0.92076,-1.8018,-1.7602,0.069799,0,0,1.0913,-0.054029,0,0.18148,0,0,0.66943,-0.094898,0,0.67626,-0.91527,-1.8073,-1.7602,4.5019,-1.4943,0.86942,0.03342,0.08,0.18,0
0.1098,0.02552,0.93034,-0.88603,-1.4467,-1.3976,0.071313,0,0,0.78293,-0.085194,0,0.27414,0,0,0.64292,-0.079594,0,0.64844,-0.87305,-1.4597,-1.3976,10.456,-1.2434,0.55895,0.017719,0.1,0.18,0
0.11924,0.030284,0.90512,-0.85792,-1.1013,-1.0403,0.063174,0,0,0.47423,-0.15849,0,0.3285,0,0,0.62286,-0.0541,0,0.62526,-0.8425,-1.1167,-1.0403,13.719,-0.99984,0.2451,0.00051606,0.12,0.18,0
0.12877,0.034035,0.88052,-0.84279,-1.1015,-1.0235,0.050847,0,0,0.46997,-0.2027,0,0.2644,0,0,0.60867,-0.049341,0,0.6107,-0.83315,-1.1111,-1.0235,10.729,-0.98928,0.24617,0.00045202,0.14,0.18,0
0.13804,0.036665,0.85642,-0.83274,-1.0924,-1.0058,0.038199,0,0,0.44986,-0.22536,0,0.19863,0,0,0.59811,-0.041159,0,0.59953,-0.82724,-1.0979,-1.0058,8.1963,-0.97698,0.23838,0.00036148,0.16,0.18,0
0.14677,0.038314,0.83267,-0.82648,-1.0779,-0.98765,0.027324,0,0,0.41903,-0.23465,0,0.14208,0,0,0.59148,-0.03209,0,0.59234,-0.82355,-1.0808,-0.98765,6.1315,-0.96401,0.22562,0.00026894,0.18,0.18,0
0.1548,0.039149,0.8091,-0.82306,-1.0604,-0.96959,0.018091,0,0,0.38096,-0.23609,0,0.094073,0,0,0.58826,-0.022993,0,0.58869,-0.82169,-1.0618,-0.96959,4.3342,-0.95101,0.20977,0.00018444,0.2,0.18,0
0.16201,0.039311,0.78561,-0.82168,-1.0406,-0.95149,0.0099798,0,0,0.3375,-0.2317,0,0.051895,0,0,0.58788,-0.013997,0,0.58803,-0.82123,-1.0411,-0.95149,2.6047,-0.93792,0.19146,0.00011319,0.22,0.18,0
0.1683,0.038887,0.76207,-0.82227,-1.0189,-0.93337,0.0024264,0,0,0.28885,-0.22223,0,0.012617,0,0,0.59015,-0.0050015,0,0.59016,-0.82224,-1.0189,-0.93337,0.70709,-0.92483,0.17077,5.7135e-05,0.24,0.18,0
0.17356,0.037926,0.73839,-0.82503,-0.99501,-0.91521,-0.0050462,0,0,0.23446,-0.20749,0,-0.02624,0,0,0.59529,0.0040951,0,0.5953,-0.82488,-0.99516,-0.91521,-1.699,-0.91175,0.14756,1.7373e-05,0.26,0.18,0
0.17768,0.036436,0.71445,-0.83066,-0.96872,-0.89704,-0.012722,0,0,0.17259,-0.18638,0,-0.066155,0,0,0.60391,0.013159,0,0.60406,-0.8295,-0.96989,-0.89704,-5.221,-0.89881,0.12161,-6.0399e-06,0.28,0.18,0
0.18046,0.034411,0.69008,-0.83959,-0.93836,-0.87843,-0.020524,0,0,0.10096,-0.15583,0,-0.10672,0,0,0.61659,0.021321,0,0.617,-0.8355,-0.94246,-0.87843,-11.284,-0.88546,0.093227,-1.3888e-05,0.3,0.18,0
0.18171,0.031848,0.66512,-0.85275,-0.90234,-0.85909,-0.026893,0,0,0.01648,-0.11246,0,-0.13984,0,0,0.63314,0.025961,0,0.63375,-0.84097,-0.91413,-0.85909,-23.661,-0.87139,0.065992,-1.1094e-05,0.32,0.18,0
0.18112,0.028871,0.63943,-0.87465,-1.1029,-1.0729,-0.028972,0,0,0.25028,-0.052149,0,-0.11283,0,0,0.65665,0.036778,0,0.65797,-0.8613,-1.1163,-1.0729,-22.204,-1.0168,0.24254,0.0020037,0.34,0.18,0
0.19173,0.027381,0.62601,-0.90466,-1.3187,-1.293,-0.023156,0,0,0.50486,-0.033384,0,-0.060206,0,0,0.68851,0.036546,0,0.68967,-0.90337,-1.32,-1.293,-3.1912,-1.1721,0.40381,0.003331,0.36,0.18,0
0.20132,0.026059,0.61189,-0.92369,-1.2814,-1.2734,-0.010483,0,0,0.45463,-0.010355,0,-0.027254,0,0,0.71982,0.013179,0,0.71999,-0.92338,-1.2817,-1.2734,-1.6772,-1.1595,0.35423,0.0022787,0.38,0.18,0
0.20991,0.025059,0.59722,-0.94115,-1.2465,-1.2535,0.0087011,0,0,0.40605,0.0091652,0,0.022623,0,0,0.74386,-0.016293,0,0.744,-0.9409,-1.2467,-1.2535,1.6312,-1.147,0.30925,0.0015165,0.4,0.18,0
0.21756,0.024518,0.58213,-0.95652,-1.2172,-1.2343,0.03157,0,0,0.36106,0.022155,0,0.082081,0,0,0.76171,-0.048516,0,0.76316,-0.95275,-1.221,-1.2343,6.8073,-1.136,0.27511,0.001061,0.42,0.18,0
0.22435,0.024524,0.56675,-0.97004,-1.1918,-1.2153,0.058031,0,0,0.31884,0.030532,0,0.15088,0,0,0.7759,-0.0847,0,0.78035,-0.95578,-1.2061,-1.2153,13.812,-1.1257,0.25505,0.00084833,0.44,0.18,0
0.23031,0.025186,0.5511,-0.98708,-1.1722,-1.1989,0.089499,0,0,0.27535,0.034662,0,0.2327,0,0,0.78918,-0.12904,0,0.79938,-0.95089,-1.2084,-1.1989,22.016,-1.1194,0.2529,0.00082675,0.46,0.18,0
0.23537,0.026577,0.53518,-1.0125,-1.1622,-1.1876,0.14515,0,0,0.22761,0.032997,0,0.37739,0,0,0.81651,-0.19179,0,0.83774,-0.92405,-1.2507,-1.1876,31.36,-1.1208,0.3001,0.001184,0.48,0.18,0
0.23942,0.030454,0.51844,-0.94747,-0.98226,-0.96775,0.1959,0,0,0.0016639,-0.055531,0,0.71903,0,0,0.74606,-0.24366,0,0.78515,-0.76812,-1.1616,-0.96775,42.6,-0.96582,0.34447,0.00037256,0.5,0.18,0
0.23744,0.037849,0.49602,-0.98326,-0.8578,-0.92434,0.14079,0,0,-0.10214,0.021819,0,0.5256,0,0,0.8238,-0.13554,0,0.83549,-0.74618,-1.0949,-0.92434,52.655,-0.9218,0.31116,0.00062037,0.52,0.18,0
0.23533,0.041027,0.4745,-0.9596,-0.82601,-0.89156,0.091106,0,0,-0.11793,0.022024,0,0.34925,0,0,0.8045,-0.099669,0,0.81121,-0.75466,-1.031,-0.89156,55.581,-0.89239,0.25066,0.00041714,0.54,0.18,0
0.23273,0.042991,0.45311,-0.94944,-0.79896,-0.86436,0.069998,0,0,-0.14748,0.021514,0,0.27033,0,0,0.80088,-0.077003,0,0.80496,-0.74595,-1.0025,-0.86436,57.594,-0.87092,0.23581,0.00037465,0.56,0.18,0
0.22943,0.044052,0.43179,-0.94594,-0.77627,-0.8405,0.055074,0,0,-0.18276,0.021037,0,0.21384,0,0,0.7992,-0.061007,0,0.80178,-0.73771,-0.9845,-0.8405,59.91,-0.85424,0.23048,0.00030677,0.58,0.18,0
0.22542,0.044495,0.41049,-0.9442,-0.75447,-0.81747,0.04412,0,0,-0.21967,0.020679,0,0.17193,0,0,0.79849,-0.048802,0,0.80014,-0.72743,-0.97125,-0.81747,62.728,-0.83872,0.23215,0.00021297,0.6,0.18,0
0.22065,0.044467,0.3892,-0.94338,-0.7332,-0.79488,0.035403,0,0,-0.2574,0.020433,0,0.13841,0,0,0.79825,-0.039012,0,0.79931,-0.71557,-0.96101,-0.79488,66.505,-0.82382,0.2385,8.1631e-05,0.62,0.18,0
0.21512,0.04407,0.36792,-0.94304,-0.71218,-0.7725,0.028157,0,0,-0.29559,0.020273,0,0.11045,0,0,0.79829,-0.03084,0,0.79895,-0.70181,-0.9534,-0.7725,71.429,-0.80924,0.24849,-9.2796e-05,0.64,0.18,0
0.20882,0.043376,0.34663,-0.94301,-0.69131,-0.75026,0.021887,0,0,-0.33409,0.020181,0,0.086193,0,0,0.79853,-0.023767,0,0.79892,-0.68589,-0.94842,-0.75026,76.869,-0.79486,0.26126,-0.00031522,0.66,0.18,0
0.20176,0.04244,0.32533,-0.94319,-0.67053,-0.72811,0.016257,0,0,-0.37279,0.020144,0,0.064386,0,0,0.79892,-0.017417,0,0.79913,-0.66802,-0.9457,-0.72811,81.617,-0.78061,0.27615,-0.00059,0.68,0.18,0
0.19391,0.041304,0.30402,-0.94353,-0.64983,-0.70602,0.011019,0,0,-0.41168,0.020154,0,0.044081,0,0,0.79944,-0.011493,0,0.79953,-0.64884,-0.94452,-0.70602,85.144,-0.76646,0.29266,-0.00092144,0.7,0.18,0
0.18529,0.040001,0.28269,-0.94402,-0.62919,-0.68398,0.0059726,0,0,-0.45074,0.020209,0,0.024513,0,0,0.80009,-0.0057351,0,0.80011,-0.62891,-0.9443,-0.68398,87.658,-0.7524,0.31041,-0.001314,0.72,0.18,0
0.17588,0.03856,0.26135,-0.94467,-0.60859,-0.66199,0.0009444,0,0,-0.48998,0.020309,0,0.0050172,0,0,0.80088,0.00010537,0,0.80087,-0.60858,-0.94469,-0.66199,-0.4956,-0.73842,0.32915,-0.0017727,0.74,0.18,0
0.16569,0.037005,0.23998,-0.9455,-0.58806,-0.64005,-0.0042293,0,0,-0.52945,0.020464,0,-0.015033,0,0,0.80181,0.0062889,0,0.80183,-0.588,-0.94556,-0.64005,-89.059,-0.72454,0.34875,-0.0023032,0.76,0.18,0
0.15471,0.035358,0.21858,-0.94656,-0.56758,-0.61818,-0.0097202,0,0,-0.56919,0.020688,0,-0.036295,0,0,0.80293,0.013116,0,0.80305,-0.56724,-0.9469,-0.61818,-87.867,-0.71077,0.36912,-0.0029123,0.78,0.18,0
0.14292,0.033637,0.19716,-0.94792,-0.54719,-0.5964,-0.015732,0,0,-0.6093,0.021014,0,-0.059545,0,0,0.80429,0.020966,0,0.80458,-0.54635,-0.94876,-0.5964,-86.808,-0.69717,0.39029,-0.0036092,0.8,0.18,0
0.13033,0.031865,0.17569,-0.94972,-0.52691,-0.57476,-0.022551,0,0,-0.64993,0.021503,0,-0.085857,0,0,0.80599,0.030366,0,0.80661,-0.52531,-0.95132,-0.57476,-85.8,-0.6838,0.41238,-0.0044066,0.82,0.18,0
0.11692,0.030059,0.15417,-0.95227,-0.50687,-0.55337,-0.030606,0,0,-0.69142,0.02227,0,-0.11683,0,0,0.80821,0.042122,0,0.8094,-0.50415,-0.95498,-0.55337,-84.774,-0.67083,0.43567,-0.0053258,0.84,0.18,0
0.10268,0.028243,0.13258,-0.9562,-0.48723,-0.53247,-0.0408,0,0,-0.73447,0.023505,0,-0.15574,0,0,0.81144,0.057632,0,0.81365,-0.4828,-0.96064,-0.53247,-83.629,-0.65863,0.46093,-0.0064095,0.86,0.18,0
0.087545,0.026419,0.11089,-0.96436,-0.46967,-0.51338,-0.054223,0,0,-0.7817,0.025508,0,-0.20643,0,0,0.81656,0.079801,0,0.82073,-0.46256,-0.97147,-0.51338,-82.324,-0.64914,0.48985,-0.0077718,0.88,0.18,0
0.071408,0.024685,0.089034,-0.98106,-0.45483,-0.49754,-0.078075,0,0,-0.8381,0.028342,0,-0.29258,0,0,0.83627,0.11527,0,0.84444,-0.44195,-0.99394,-0.49754,-80.275,-0.64448,0.52941,-0.0097912,0.9,0.18,0
0.054021,0.022578,0.066293,-0.8981,-0.4476,-0.45343,-0.11746,0,0,-0.79541,-0.0056704,0,-0.43208,0,0,0.75846,0.22038,0,0.78981,-0.41841,-0.92729,-0.45343,-75.769,-0.59971,0.4926,-0.0071456,0.92,0.18,0
0.04107,0.022541,0.049212,-0.98247,-0.45027,-0.47903,-0.08258,0,0,-0.65446,0.03739,0,-0.21471,0,0,0.8387,0.15728,0,0.85223,-0.43775,-0.99499,-0.47903,-81.379,-0.63726,0.53778,-0.0078296,0.94,0.18,0
0.027843,0.022397,0.032745,-0.96551,-0.42068,-0.4486,-0.051375,0,0,-0.67198,0.036299,0,-0.13357,0,0,0.82138,0.090922,0,0.82606,-0.41588,-0.97031,-0.4486,-84.66,-0.6116,0.53882,-0.0079345,0.96,0.18,0
0.014191,0.022218,0.016357,-0.95759,-0.39507,-0.42216,-0.02529,0,0,-0.69607,0.035213,0,-0.065754,0,0,0.81862,0.042296,0,0.8195,-0.39393,-0.95873,-0.42216,-87.431,-0.59161,0.55122,-0.0085262,0.98,0.18,0
0,0.022148,0,-0.93508,-0.36255,-0.38929,-0.0013539,0,0,-0.70953,0.034763,0,-0.0035201,0,0,0.81784,-2.949e-17,0,0.81766,-0.36255,-0.93509,-0.38929,-89.865,-0.56231,0.55965,-0.0089333,1,0.18,0
0,0.020128,1,-0.96641,-1.852,-1.8455,0.0037032,0,0,1.1428,-0.0084025,0,0.0096284,0,0,0.70057,6.3491e-16,0,0.70052,-0.96639,-1.852,-1.8455,0.23959,-1.5546,0.88238,0.035279,0,0.2,0
0.022857,0.02032,0.98599,-0.94595,-1.8269,-1.8178,0.015498,0,0,1.1335,-0.011748,0,0.040294,0,0,0.69789,-0.019344,0,0.69812,-0.94568,-1.8272,-1.8178,1.0076,-1.5302,0.87685,0.034612,0.02,0.2,0
0.045338,0.020888,0.97208,-0.93791,-1.8151,-1.798,0.030348,0,0,1.1181,-0.022271,0,0.078904,0,0,0.68974,-0.038234,0,0.69078,-0.93686,-1.8162,-1.798,1.979,-1.517,0.87037,0.033814,0.04,0.2,0
0.067581,0.021765,0.9584,-0.92558,-1.8095,-1.7789,0.042548,0,0,1.1093,-0.039712,0,0.11062,0,0,0.67597,-0.055473,0,0.67827,-0.92353,-1.8115,-1.7789,2.7496,-1.5047,0.87213,0.033909,0.06,0.2,0
0.089711,0.022815,0.94505,-0.91058,-1.8079,-1.7606,0.050095,0,0,1.105,-0.061552,0,0.13025,0,0,0.65716,-0.068964,0,0.66084,-0.90779,-1.8107,-1.7606,3.1853,-1.493,0.87895,0.034493,0.08,0.2,0
0.11178,0.023867,0.93211,-0.88101,-1.4439,-1.3966,0.051853,0,0,0.78865,-0.082074,0,0.20026,0,0,0.63791,-0.057177,0,0.6408,-0.87382,-1.4511,-1.3966,7.9734,-1.2405,0.55253,0.017816,0.1,0.2,0
0.12126,0.02738,0.90695,-0.85629,-1.0906,-1.0375,0.047904,0,0,0.47128,-0.13801,0,0.2491,0,0,0.62353,-0.039793,0,0.62482,-0.84687,-1.1,-1.0375,11.118,-0.99482,0.22843,0.00046118,0.12,0.2,0
0.13063,0.030275,0.88223,-0.84398,-1.0898,-1.0212,0.040266,0,0,0.46091,-0.17824,0,0.20938,0,0,0.61302,-0.037907,0,0.61421,-0.83755,-1.0962,-1.0212,9.0693,-0.98501,0.23053,0.00041211,0.14,0.2,0
0.13969,0.03242,0.8579,-0.83483,-1.082,-1.004,0.031622,0,0,0.43986,-0.20281,0,0.16444,0,0,0.60463,-0.033504,0,0.60556,-0.83084,-1.086,-1.004,7.1761,-0.97361,0.22561,0.00033807,0.16,0.2,0
0.14823,0.033837,0.83386,-0.82883,-1.0692,-0.98635,0.023505,0,0,0.40956,-0.21551,0,0.12223,0,0,0.59892,-0.027734,0,0.59956,-0.82655,-1.0715,-0.98635,5.5319,-0.96147,0.2154,0.00025611,0.18,0.2,0
0.15608,0.034615,0.80999,-0.82537,-1.0529,-0.96848,0.016389,0,0,0.37209,-0.21953,0,0.085223,0,0,0.59595,-0.021418,0,0.59633,-0.8242,-1.0541,-0.96848,4.0985,-0.94892,0.20124,0.00017788,0.2,0.2,0
0.16311,0.034847,0.78619,-0.82407,-1.0339,-0.95048,0.010144,0,0,0.32867,-0.21686,0,0.052748,0,0,0.59561,-0.014935,0,0.59579,-0.82358,-1.0344,-0.95048,2.7614,-0.93615,0.18382,0.0001099,0.22,0.2,0
0.16922,0.034605,0.76234,-0.82474,-1.0125,-0.93233,0.0044965,0,0,0.27973,-0.20832,0,0.023382,0,0,0.59783,-0.0084601,0,0.59789,-0.82463,-1.0126,-0.93233,1.3715,-0.92317,0.16332,5.591e-05,0.24,0.2,0
0.1743,0.033938,0.73836,-0.8275,-0.98862,-0.91401,-0.00078738,0,0,0.22494,-0.19397,0,-0.0040944,0,0,0.60269,-0.0021714,0,0.6027,-0.82749,-0.98862,-0.91401,-0.27999,-0.91004,0.13967,1.786e-05,0.26,0.2,0
0.17822,0.032877,0.71413,-0.83254,-0.96201,-0.89543,-0.0057776,0,0,0.16351,-0.17311,0,-0.030044,0,0,0.61034,0.0035309,0,0.61037,-0.83228,-0.96227,-0.89543,-2.55,-0.89666,0.11259,-3.6035e-06,0.28,0.2,0
0.18084,0.031446,0.68953,-0.84018,-0.93204,-0.87643,-0.010121,0,0,0.094249,-0.14459,0,-0.052627,0,0,0.62074,0.0077786,0,0.62081,-0.83908,-0.93315,-0.87643,-6.2132,-0.88289,0.082034,-9.8511e-06,0.3,0.2,0
0.18199,0.029697,0.66447,-0.8503,-0.89775,-0.85665,-0.012891,0,0,0.016499,-0.10686,0,-0.067032,0,0,0.63337,0.0093229,0,0.63348,-0.84703,-0.90102,-0.85665,-14.26,-0.86823,0.049886,-5.5851e-06,0.32,0.2,0
0.1815,0.027757,0.63886,-0.86875,-1.1066,-1.0718,-0.011572,0,0,0.25778,-0.060423,0,-0.046371,0,0,0.65059,0.010433,0,0.65078,-0.86493,-1.1104,-1.0718,-15.935,-1.0157,0.23528,0.002117,0.34,0.2,0
0.1923,0.026567,0.62564,-0.89241,-1.328,-1.2918,-0.0043838,0,0,0.51918,-0.047154,0,-0.011398,0,0,0.67397,0.0050749,0,0.6741,-0.89236,-1.3281,-1.2918,-0.57648,-1.1707,0.41875,0.0036759,0.36,0.2,0
0.20227,0.025611,0.6119,-0.90585,-1.2971,-1.2728,0.007262,0,0,0.47703,-0.031635,0,0.018881,0,0,0.69763,-0.011481,0,0.69777,-0.90572,-1.2973,-1.2728,1.0629,-1.1586,0.37991,0.0027768,0.38,0.2,0
0.21138,0.024944,0.59774,-0.91807,-1.2668,-1.2532,0.022845,0,0,0.43565,-0.017651,0,0.059396,0,0,0.7163,-0.033821,0,0.71707,-0.91658,-1.2683,-1.2532,3.7325,-1.146,0.34439,0.0020843,0.4,0.2,0
0.21969,0.024643,0.58325,-0.9275,-1.2394,-1.2333,0.042485,0,0,0.39758,-0.0079343,0,0.11046,0,0,0.72928,-0.060786,0,0.73173,-0.92182,-1.2451,-1.2333,7.6187,-1.1334,0.31757,0.0016373,0.42,0.2,0
0.22729,0.024784,0.56856,-0.93245,-1.2166,-1.2133,0.066052,0,0,0.36506,-0.004282,0,0.17173,0,0,0.73608,-0.092938,0,0.74177,-0.91784,-1.2312,-1.2133,12.469,-1.1208,0.30477,0.001437,0.44,0.2,0
0.2343,0.02541,0.55381,-0.92832,-1.1996,-1.1922,0.096288,0,0,0.34301,-0.0096187,0,0.25035,0,0,0.73477,-0.13342,0,0.74651,-0.89762,-1.2303,-1.1922,17.686,-1.1067,0.31534,0.0015315,0.46,0.2,0
0.24101,0.026721,0.53917,-0.87867,-1.1827,-1.1576,0.1257,0,0,0.36257,-0.032621,0,0.32682,0,0,0.7006,-0.19019,0,0.72509,-0.83343,-1.2279,-1.1576,19.795,-1.073,0.36444,0.0021772,0.48,0.2,0
0.2488,0.027521,0.52578,-0.84442,-1.0311,-0.95699,0.14005,0,0,0.097861,-0.12844,0,0.5218,0,0,0.6411,-0.21394,0,0.68008,-0.74938,-1.1261,-0.95699,33.621,-0.94417,0.33638,0.0012748,0.5,0.2,0
0.24492,0.032675,0.50128,-0.80785,-0.82366,-0.74009,0.10393,0,0,-0.17616,-0.21728,0,0.54044,0,0,0.59226,-0.11702,0,0.60374,-0.71152,-0.91998,-0.74009,42.825,-0.79053,0.19575,-0.00035773,0.52,0.2,0
0.24175,0.035972,0.4784,-0.776,-0.8005,-0.71215,0.080761,0,0,-0.16601,-0.22971,0,0.41996,0,0,0.56396,-0.091452,0,0.57128,-0.70656,-0.86994,-0.71215,40.687,-0.76288,0.16065,-0.00021208,0.54,0.2,0
0.23828,0.03791,0.45616,-0.76274,-0.78165,-0.69139,0.063996,0,0,-0.18549,-0.23466,0,0.33278,0,0,0.55237,-0.072849,0,0.55712,-0.7075,-0.83688,-0.69139,40.798,-0.74526,0.13814,-0.0001292,0.56,0.2,0
0.23433,0.039054,0.43421,-0.75341,-0.76197,-0.67172,0.051956,0,0,-0.2124,-0.23464,0,0.27017,0,0,0.54653,-0.058662,0,0.54965,-0.70556,-0.80982,-0.67172,42.647,-0.72903,0.12467,-7.5367e-05,0.58,0.2,0
0.22978,0.039598,0.41244,-0.74683,-0.74223,-0.65294,0.042371,0,0,-0.24412,-0.23217,0,0.22033,0,0,0.54312,-0.047429,0,0.54517,-0.7021,-0.78696,-0.65294,46.553,-0.714,0.11744,-3.6767e-05,0.6,0.2,0
0.22457,0.039688,0.39076,-0.74174,-0.72236,-0.63461,0.034511,0,0,-0.27853,-0.22815,0,0.17946,0,0,0.54102,-0.038232,0,0.54236,-0.69621,-0.76789,-0.63461,52.84,-0.69957,0.11554,-1.0356e-05,0.62,0.2,0
0.21864,0.039418,0.36916,-0.7376,-0.70237,-0.61657,0.027824,0,0,-0.31467,-0.22309,0,0.14469,0,0,0.53972,-0.030465,0,0.54058,-0.68705,-0.75291,-0.61657,61.166,-0.68551,0.1181,4.9704e-06,0.64,0.2,0
0.21198,0.038859,0.34758,-0.73411,-0.68227,-0.59871,0.021957,0,0,-0.35205,-0.21726,0,0.11417,0,0,0.53899,-0.023697,0,0.5395,-0.67422,-0.74216,-0.59871,69.867,-0.6717,0.12429,9.0026e-06,0.66,0.2,0
0.20456,0.038064,0.32604,-0.73112,-0.66206,-0.58097,0.016645,0,0,-0.39039,-0.21083,0,0.086552,0,0,0.53868,-0.017599,0,0.53897,-0.65826,-0.73493,-0.58097,77.132,-0.65805,0.13333,8.533e-07,0.68,0.2,0
0.19637,0.037073,0.30449,-0.72856,-0.64177,-0.56334,0.011684,0,0,-0.42956,-0.2039,0,0.060755,0,0,0.53874,-0.011901,0,0.53887,-0.64022,-0.7301,-0.56334,82.466,-0.64455,0.14456,-2.0881e-05,0.7,0.2,0
0.18738,0.035919,0.28294,-0.72638,-0.62138,-0.5458,0.0069036,0,0,-0.46952,-0.19652,0,0.035898,0,0,0.53913,-0.0063644,0,0.53916,-0.62093,-0.72683,-0.5458,86.254,-0.63118,0.15753,-5.8078e-05,0.72,0.2,0
0.17758,0.034632,0.26136,-0.7246,-0.60092,-0.52833,0.0021567,0,0,-0.51028,-0.18872,0,0.011215,0,0,0.53986,-0.00076079,0,0.53985,-0.60088,-0.72464,-0.52833,89.001,-0.61795,0.17192,-0.00011316,0.74,0.2,0
0.16697,0.033235,0.23975,-0.72326,-0.58038,-0.51097,-0.0026935,0,0,-0.55197,-0.18047,0,-0.014006,0,0,0.54096,0.0051496,0,0.54098,-0.58033,-0.72331,-0.51097,-88.92,-0.60487,0.18755,-0.00018925,0.76,0.2,0
0.15551,0.03175,0.21808,-0.72247,-0.55976,-0.49371,-0.0077814,0,0,-0.59478,-0.17173,0,-0.040463,0,0,0.54251,0.011639,0,0.54263,-0.55939,-0.72284,-0.49371,-87.268,-0.59198,0.20437,-0.00029059,0.78,0.2,0
0.14318,0.030201,0.19635,-0.72242,-0.53907,-0.47662,-0.01325,0,0,-0.63907,-0.16237,0,-0.068902,0,0,0.54466,0.019039,0,0.54499,-0.53812,-0.72337,-0.47662,-85.888,-0.57937,0.22247,-0.0004232,0.8,0.2,0
0.12994,0.02861,0.17451,-0.72345,-0.51829,-0.45978,-0.019263,0,0,-0.68555,-0.15213,0,-0.10017,0,0,0.54767,0.027789,0,0.54836,-0.5165,-0.72525,-0.45978,-84.683,-0.56717,0.24214,-0.00059649,0.82,0.2,0
0.11575,0.027005,0.15253,-0.72626,-0.49742,-0.44337,-0.02603,0,0,-0.73551,-0.14053,0,-0.13536,0,0,0.55204,0.038509,0,0.55337,-0.4945,-0.72918,-0.44337,-83.592,-0.55568,0.26399,-0.00082667,0.84,0.2,0
0.10052,0.025419,0.13035,-0.73233,-0.47658,-0.42785,-0.033734,0,0,-0.79165,-0.12671,0,-0.17542,0,0,0.55893,0.052148,0,0.56133,-0.47221,-0.7367,-0.42785,-82.611,-0.54558,0.28924,-0.0011448,0.86,0.2,0
0.084089,0.023914,0.10782,-0.74443,-0.45595,-0.41402,-0.042858,0,0,-0.85906,-0.109,0,-0.22286,0,0,0.57163,0.070235,0,0.57589,-0.44971,-0.75066,-0.41402,-81.726,-0.53813,0.32029,-0.0016171,0.88,0.2,0
0.066161,0.02251,0.084616,-0.77177,-0.43876,-0.40547,-0.052428,0,0,-0.95239,-0.08656,0,-0.27263,0,0,0.60157,0.095515,0,0.60915,-0.4307,-0.77983,-0.40547,-81.261,-0.53866,0.3624,-0.0024046,0.9,0.2,0
0.045993,0.021518,0.059693,-0.79417,-0.44611,-0.41685,-0.074923,0,0,-0.7426,-0.050719,0,-0.27705,0,0,0.65402,0.18302,0,0.68304,-0.4301,-0.81018,-0.41685,-78.298,-0.55238,0.38689,-0.0029645,0.92,0.2,0
0.036457,0.022604,0.045994,-0.8321,-0.45465,-0.43202,-0.064534,0,0,-0.5201,-0.029421,0,-0.16779,0,0,0.72006,0.14744,0,0.73415,-0.44392,-0.84282,-0.43202,-80.561,-0.57292,0.40499,-0.0034016,0.94,0.2,0
0.025189,0.022561,0.030891,-0.8777,-0.43794,-0.42558,-0.047279,0,0,-0.58775,-0.016062,0,-0.12292,0,0,0.76236,0.086773,0,0.76699,-0.43291,-0.88272,-0.42558,-83.933,-0.5804,0.45352,-0.0047867,0.96,0.2,0
0.012947,0.02246,0.0155,-0.89229,-0.41564,-0.40788,-0.023589,0,0,-0.62974,-0.010092,0,-0.061331,0,0,0.77227,0.040645,0,0.77314,-0.41448,-0.89345,-0.40788,-87.174,-0.57194,0.48231,-0.0057588,0.98,0.2,0
0,0.022402,0,-0.87627,-0.38476,-0.37831,-0.0011027,0,0,-0.64735,-0.0083815,0,-0.002867,0,0,0.77498,6.9389e-18,0,0.7748,-0.38475,-0.87628,-0.37831,-89.871,-0.54644,0.49478,-0.0062173,1,0.2,0
0,0.019754,1,-0.95143,-1.8653,-1.845,0.0024725,0,0,1.1617,-0.026389,0,0.0064286,0,0,0.68382,1.2317e-15,0,0.68379,-0.95142,-1.8653,-1.845,0.15501,-1.5539,0.90393,0.037869,0,0.22,0
0.023234,0.019882,0.98632,-0.93187,-1.8406,-1.8181,0.011114,0,0,1.152,-0.029274,0,0.028898,0,0,0.68149,-0.01442,0,0.68162,-0.93173,-1.8407,-1.8181,0.70065,-1.5302,0.89787,0.037096,0.02,0.22,0
0.046082,0.020259,0.97274,-0.92515,-1.8277,-1.7986,0.02146,0,0,1.1355,-0.037805,0,0.055797,0,0,0.67458,-0.028158,0,0.67517,-0.92464,-1.8282,-1.7986,1.3614,-1.5171,0.88911,0.035964,0.04,0.22,0
0.068652,0.020835,0.95934,-0.9152,-1.8188,-1.7795,0.029807,0,0,1.1237,-0.051053,0,0.077499,0,0,0.66339,-0.040278,0,0.66463,-0.91422,-1.8198,-1.7795,1.8873,-1.5045,0.88614,0.03549,0.06,0.22,0
0.091028,0.021525,0.9462,-0.90313,-1.8122,-1.7608,0.035181,0,0,1.115,-0.066774,0,0.09147,0,0,0.64867,-0.049565,0,0.65061,-0.90177,-1.8135,-1.7608,2.213,-1.492,0.88656,0.035362,0.08,0.22,0
0.11325,0.022237,0.93339,-0.87706,-1.4434,-1.3962,0.037212,0,0,0.79415,-0.081848,0,0.14412,0,0,0.63397,-0.04116,0,0.63549,-0.87328,-1.4472,-1.3962,5.8639,-1.2389,0.55055,0.018017,0.1,0.22,0
0.12279,0.024763,0.9083,-0.85466,-1.0848,-1.036,0.035322,0,0,0.47147,-0.12697,0,0.18368,0,0,0.62307,-0.02934,0,0.62377,-0.84936,-1.0901,-1.036,8.5312,-0.99183,0.21878,0.00042887,0.12,0.22,0
0.13211,0.026905,0.88355,-0.84409,-1.0822,-1.0196,0.0308,0,0,0.45646,-0.16255,0,0.16016,0,0,0.61496,-0.029037,0,0.61566,-0.84017,-1.0861,-1.0196,7.2531,-0.98197,0.22035,0.00038573,0.14,0.22,0
0.14105,0.028553,0.8591,-0.83583,-1.0746,-1.0027,0.025206,0,0,0.43383,-0.18704,0,0.13107,0,0,0.60829,-0.026982,0,0.60889,-0.8332,-1.0773,-1.0027,5.9603,-0.97105,0.21663,0.0003212,0.16,0.22,0
0.14946,0.029693,0.83488,-0.83004,-1.0627,-0.98528,0.019667,0,0,0.40362,-0.20141,0,0.10227,0,0,0.60357,-0.023777,0,0.60404,-0.82839,-1.0644,-0.98528,4.7971,-0.95935,0.20805,0.00024726,0.18,0.22,0
0.1572,0.030368,0.81081,-0.82658,-1.0473,-0.96758,0.014684,0,0,0.36662,-0.20736,0,0.076358,0,0,0.60106,-0.019949,0,0.60138,-0.8256,-1.0483,-0.96758,3.7889,-0.94717,0.19528,0.00017405,0.2,0.22,0
0.16413,0.030636,0.7868,-0.82519,-1.029,-0.94965,0.010355,0,0,0.3236,-0.20625,0,0.053844,0,0,0.60083,-0.015868,0,0.60104,-0.82466,-1.0295,-0.94965,2.9012,-0.93461,0.17883,0.00010883,0.22,0.22,0
0.17014,0.030554,0.76275,-0.82574,-1.008,-0.93149,0.0065946,0,0,0.27495,-0.19887,0,0.034292,0,0,0.60291,-0.011797,0,0.60303,-0.82551,-1.0082,-0.93149,2.0697,-0.92174,0.15891,5.6278e-05,0.24,0.22,0
0.17513,0.030167,0.73857,-0.82821,-0.98441,-0.91307,0.0033173,0,0,0.22064,-0.18549,0,0.01725,0,0,0.60728,-0.0080057,0,0.60734,-0.82814,-0.98448,-0.91307,1.2161,-0.90856,0.13557,1.9077e-05,0.26,0.22,0
0.17897,0.029512,0.71417,-0.83264,-0.95816,-0.89432,0.00056632,0,0,0.16038,-0.16597,0,0.0029449,0,0,0.61386,-0.0048922,0,0.61389,-0.83264,-0.95816,-0.89432,0.2585,-0.89504,0.10871,-1.9584e-06,0.28,0.22,0
0.18154,0.028627,0.68946,-0.839,-0.92895,-0.87511,-0.0013734,0,0,0.093907,-0.13998,0,-0.0071417,0,0,0.62238,-0.0030372,0,0.62241,-0.83898,-0.92897,-0.87511,-0.87447,-0.88102,0.078444,-8.2579e-06,0.3,0.22,0
0.18272,0.027573,0.66438,-0.84704,-0.89668,-0.8553,-0.0018437,0,0,0.021481,-0.10758,0,-0.0095874,0,0,0.63232,-0.003136,0,0.63235,-0.84698,-0.89675,-0.8553,-2.1243,-0.86634,0.046176,-4.5071e-06,0.32,0.22,0
0.1824,0.026454,0.63887,-0.86296,-1.1121,-1.0717,0.00097312,0,0,0.26731,-0.070139,0,0.0020351,0,0,0.64545,-0.0086668,0,0.64557,-0.86295,-1.1122,-1.0717,-0.38546,-1.0156,0.23878,0.0022743,0.34,0.22,0
0.19342,0.025495,0.62581,-0.88206,-1.3373,-1.2916,0.0088621,0,0,0.53244,-0.059427,0,0.023041,0,0,0.66312,-0.018417,0,0.66344,-0.88188,-1.3375,-1.2916,1.1147,-1.1703,0.4345,0.0040552,0.36,0.22,0
0.2037,0.024793,0.61235,-0.8911,-1.3098,-1.2726,0.019547,0,0,0.49599,-0.048381,0,0.050823,0,0,0.68093,-0.030621,0,0.68164,-0.89019,-1.3108,-1.2726,2.6669,-1.1579,0.40286,0.0032569,0.38,0.22,0
0.21326,0.024353,0.59857,-0.89825,-1.2828,-1.2529,0.032582,0,0,0.46103,-0.038914,0,0.084713,0,0,0.69456,-0.047496,0,0.69616,-0.89551,-1.2856,-1.2529,4.8085,-1.1447,0.37479,0.0026347,0.4,0.22,0
0.22214,0.024201,0.58457,-0.90178,-1.2583,-1.2326,0.048181,0,0,0.43004,-0.033373,0,0.12527,0,0,0.70259,-0.068557,0,0.70587,-0.89538,-1.2646,-1.2326,7.5634,-1.1309,0.35432,0.0022216,0.42,0.22,0
0.23046,0.024353,0.57047,-0.89902,-1.238,-1.2116,0.066193,0,0,0.40632,-0.034351,0,0.1721,0,0,0.70326,-0.09397,0,0.70942,-0.88655,-1.2505,-1.2116,10.667,-1.1162,0.34611,0.002039,0.44,0.22,0
0.23839,0.024802,0.55644,-0.88313,-1.2233,-1.1884,0.08405,0,0,0.39681,-0.045433,0,0.21853,0,0,0.69193,-0.12452,0,0.70294,-0.8635,-1.2429,-1.1884,13.148,-1.0983,0.35532,0.002122,0.46,0.22,0
0.24633,0.025272,0.54279,-0.86432,-1.2296,-1.171,0.096088,0,0,0.39863,-0.076209,0,0.24983,0,0,0.66468,-0.16023,0,0.68392,-0.84058,-1.2533,-1.171,13.875,-1.0883,0.37834,0.0023433,0.48,0.22,0
0.25434,0.025317,0.52985,-0.83078,-1.0077,-0.94894,0.090638,0,0,0.10702,-0.10189,0,0.34585,0,0,0.62931,-0.13327,0,0.64477,-0.76812,-1.0704,-0.94894,31.848,-0.92914,0.27535,0.0011075,0.5,0.22,0
0.25061,0.029158,0.50538,-0.80316,-0.7933,-0.73163,0.079649,0,0,-0.18599,-0.16034,0,0.41418,0,0,0.60037,-0.089461,0,0.60713,-0.71843,-0.87803,-0.73163,46.772,-0.77603,0.15343,-0.00018088,0.52,0.22,0
0.2469,0.031839,0.48182,-0.78573,-0.78501,-0.71213,0.066107,0,0,-0.19136,-0.18949,0,0.34375,0,0,0.5805,-0.077639,0,0.5857,-0.71926,-0.85148,-0.71213,45.156,-0.76096,0.13592,-0.00012777,0.54,0.22,0
0.24296,0.033604,0.45894,-0.77217,-0.7694,-0.69194,0.054596,0,0,-0.20859,-0.20139,0,0.2839,0,0,0.56671,-0.064868,0,0.57041,-0.71617,-0.8254,-0.69194,45.726,-0.7445,0.12314,-8.3527e-05,0.56,0.22,0
0.23855,0.034666,0.43648,-0.76286,-0.75251,-0.67285,0.045052,0,0,-0.23403,-0.20711,0,0.23427,0,0,0.55822,-0.053674,0,0.56079,-0.71234,-0.80304,-0.67285,48.278,-0.72941,0.11561,-4.9286e-05,0.58,0.22,0
0.23359,0.035208,0.41429,-0.75559,-0.73448,-0.65416,0.037139,0,0,-0.26371,-0.20881,0,0.19312,0,0,0.55275,-0.044169,0,0.55451,-0.70642,-0.78364,-0.65416,52.934,-0.71474,0.11283,-2.4078e-05,0.6,0.22,0
0.22801,0.035341,0.39226,-0.74986,-0.7158,-0.63583,0.030377,0,0,-0.29649,-0.20792,0,0.15796,0,0,0.54913,-0.036082,0,0.55031,-0.698,-0.76766,-0.63583,59.639,-0.7005,0.11423,-7.5052e-06,0.62,0.22,0
0.22173,0.035147,0.37035,-0.74524,-0.69665,-0.61774,0.02449,0,0,-0.33149,-0.20515,0,0.12735,0,0,0.54673,-0.029094,0,0.5475,-0.68645,-0.75544,-0.61774,67.387,-0.68654,0.11925,-3.207e-07,0.64,0.22,0
0.21474,0.034686,0.34852,-0.74148,-0.67714,-0.59985,0.019243,0,0,-0.36825,-0.20095,0,0.10007,0,0,0.54522,-0.02292,0,0.54569,-0.67182,-0.7468,-0.59985,74.558,-0.67282,0.12727,-3.7515e-06,0.66,0.22,0
0.207,0.034007,0.32674,-0.73843,-0.65733,-0.5821,0.014455,0,0,-0.40647,-0.1956,0,0.075167,0,0,0.54441,-0.017312,0,0.54468,-0.65482,-0.74093,-0.5821,80.19,-0.65928,0.13772,-1.9475e-05,0.68,0.22,0
0.19849,0.033148,0.30497,-0.736,-0.63726,-0.56446,0.0099718,0,0,-0.44599,-0.18928,0,0.051853,0,0,0.54419,-0.012051,0,0.54432,-0.63627,-0.737,-0.56446,84.29,-0.64591,0.15011,-4.9598e-05,0.7,0.22,0
0.18916,0.03214,0.2832,-0.73417,-0.61698,-0.54695,0.0056635,0,0,-0.48678,-0.18209,0,0.02945,0,0,0.54453,-0.0069393,0,0.54458,-0.61671,-0.73444,-0.54695,87.24,-0.6327,0.16414,-9.6724e-05,0.72,0.22,0
0.17902,0.031012,0.26141,-0.73295,-0.5965,-0.52954,0.0014187,0,0,-0.52886,-0.1741,0,0.0073772,0,0,0.54543,-0.0017825,0,0.54543,-0.59649,-0.73296,-0.52954,89.404,-0.61966,0.17957,-0.00016408,0.74,0.22,0
0.16801,0.029786,0.23957,-0.73241,-0.57584,-0.51226,-0.0028574,0,0,-0.57239,-0.16531,0,-0.014859,0,0,0.54694,0.0036184,0,0.54695,-0.57579,-0.73246,-0.51226,-88.955,-0.60684,0.1963,-0.00025576,0.76,0.22,0
0.15612,0.028488,0.21765,-0.73267,-0.555,-0.49513,-0.0072412,0,0,-0.61761,-0.15568,0,-0.037654,0,0,0.54918,0.0094823,0,0.54926,-0.55471,-0.73296,-0.49513,-87.67,-0.59427,0.21435,-0.00037714,0.78,0.22,0
0.14331,0.027142,0.19563,-0.73395,-0.534,-0.4782,-0.011781,0,0,-0.66495,-0.14507,0,-0.061262,0,0,0.55234,0.016059,0,0.55257,-0.53331,-0.73464,-0.4782,-86.64,-0.58205,0.23381,-0.00053558,0.8,0.22,0
0.12952,0.02578,0.17347,-0.73661,-0.51281,-0.46156,-0.016481,0,0,-0.71514,-0.13325,0,-0.085701,0,0,0.5568,0.023641,0,0.55729,-0.5116,-0.73782,-0.46156,-85.811,-0.57032,0.25495,-0.00074179,0.82,0.22,0
0.1147,0.024438,0.15109,-0.74123,-0.49142,-0.44534,-0.021238,0,0,-0.76931,-0.11982,0,-0.11044,0,0,0.56317,0.032556,0,0.5641,-0.48963,-0.74302,-0.44534,-85.175,-0.55933,0.27819,-0.0010119,0.84,0.22,0
0.09875,0.023174,0.12841,-0.74857,-0.46979,-0.42972,-0.025797,0,0,-0.82903,-0.1042,0,-0.13415,0,0,0.57269,0.043095,0,0.57431,-0.46743,-0.75094,-0.42972,-84.757,-0.54936,0.30413,-0.0013701,0.86,0.22,0
0.08154,0.022059,0.10527,-0.75972,-0.44816,-0.415,-0.029351,0,0,-0.89627,-0.086206,0,-0.15262,0,0,0.58774,0.055187,0,0.59036,-0.44542,-0.76246,-0.415,-84.665,-0.54096,0.33329,-0.0018483,0.88,0.22,0
0.062899,0.021222,0.081393,-0.77178,-0.42495,-0.39971,-0.031516,0,0,-0.96738,-0.065598,0,-0.16388,0,0,0.60929,0.066395,0,0.61305,-0.42211,-0.77462,-0.39971,-84.85,-0.53215,0.36423,-0.0024501,0.9,0.22,0
0.042845,0.020549,0.056531,-0.78633,-0.43981,-0.41024,-0.031171,0,0,-0.7396,-0.051251,0,-0.12046,0,0,0.64119,0.097377,0,0.64954,-0.43701,-0.78913,-0.41024,-84.878,-0.54546,0.36636,-0.0024857,0.92,0.22,0
0.033315,0.021364,0.043314,-0.81154,-0.48162,-0.43126,-0.034366,0,0,-0.49437,-0.065459,0,-0.089352,0,0,0.68144,0.11044,0,0.6906,-0.47807,-0.81508,-0.43126,-84.116,-0.57481,0.36269,-0.0023133,0.94,0.22,0
0.02307,0.021755,0.029274,-0.82566,-0.45595,-0.41376,-0.028748,0,0,-0.53547,-0.05485,0,-0.074745,0,0,0.71459,0.070869,0,0.71798,-0.45373,-0.82788,-0.41376,-85.58,-0.56512,0.39566,-0.0030719,0.96,0.22,0
0.011896,0.021815,0.014731,-0.8409,-0.43413,-0.39724,-0.016365,0,0,-0.57676,-0.047955,0,-0.042548,0,0,0.73184,0.034298,0,0.73251,-0.43347,-0.84156,-0.39724,-87.7,-0.55742,0.42735,-0.0039115,0.98,0.22,0
0,0.021813,0,-0.82702,-0.40455,-0.36947,-3.816e-05,0,0,-0.59481,-0.045608,0,-9.9215e-05,0,0,0.73655,3.296e-17,0,0.73642,-0.40455,-0.82702,-0.36947,-89.995,-0.53368,0.44105,-0.0043127,1,0.22,0
0,0.019072,1,-0.94045,-1.8748,-1.8446,0.0014842,0,0,1.1753,-0.039265,0,0.003859,0,0,0.67173,1.3852e-15,0,0.67171,-0.94045,-1.8748,-1.8446,0.091018,-1.5533,0.91959,0.039795,0,0.24,0
0.023507,0.019149,0.98657,-0.92156,-1.85,-1.818,0.007275,0,0,1.1654,-0.041595,0,0.018915,0,0,0.66973,-0.010059,0,0.6698,-0.92151,-1.8501,-1.818,0.4489,-1.5299,0.91299,0.038924,0.02,0.24,0
0.046617,0.019376,0.97321,-0.91594,-1.836,-1.7988,0.014035,0,0,1.1477,-0.048394,0,0.036492,0,0,0.66388,-0.019565,0,0.66417,-0.91573,-1.8362,-1.7988,0.87375,-1.5169,0.90238,0.03752,0.04,0.24,0
0.069416,0.019723,0.96001,-0.90768,-1.825,-1.7798,0.019554,0,0,1.1338,-0.058698,0,0.050839,0,0,0.65457,-0.027894,0,0.65518,-0.90726,-1.8254,-1.7798,1.2206,-1.5041,0.89619,0.036646,0.06,0.24,0
0.091967,0.020144,0.94703,-0.89763,-1.8155,-1.761,0.023412,0,0,1.1223,-0.07086,0,0.060871,0,0,0.64255,-0.034371,0,0.6435,-0.89703,-1.8161,-1.761,1.4602,-1.4913,0.89275,0.036075,0.08,0.24,0
0.11431,0.020593,0.93431,-0.87385,-1.4439,-1.3961,0.02533,0,0,0.79923,-0.082968,0,0.098299,0,0,0.6307,-0.02882,0,0.63145,-0.87208,-1.4457,-1.3961,4.0342,-1.238,0.55078,0.018236,0.1,0.24,0
0.12394,0.022301,0.90929,-0.8529,-1.0817,-1.035,0.02465,0,0,0.47355,-0.12138,0,0.12818,0,0,0.62193,-0.021247,0,0.6223,-0.85027,-1.0843,-1.035,6.0794,-0.98988,0.21372,0.00041283,0.12,0.24,0
0.13325,0.023773,0.88455,-0.8435,-1.0776,-1.0186,0.022225,0,0,0.4553,-0.15343,0,0.11557,0,0,0.61537,-0.021961,0,0.61577,-0.84141,-1.0797,-1.0186,5.3749,-0.97991,0.21439,0.00037094,0.14,0.24,0
0.14215,0.024938,0.86006,-0.83586,-1.0699,-1.0017,0.019048,0,0,0.43132,-0.17714,0,0.099051,0,0,0.60989,-0.021566,0,0.61027,-0.83432,-1.0714,-1.0017,4.623,-0.96917,0.21108,0.00031157,0.16,0.24,0
0.1505,0.02578,0.83576,-0.83029,-1.0585,-0.98451,0.015807,0,0,0.40097,-0.19229,0,0.082195,0,0,0.60595,-0.020372,0,0.6063,-0.8292,-1.0595,-0.98451,3.944,-0.95775,0.20349,0.00024277,0.18,0.24,0
0.15819,0.02632,0.81159,-0.82679,-1.0437,-0.96693,0.012899,0,0,0.36438,-0.19954,0,0.067073,0,0,0.60386,-0.018693,0,0.60415,-0.82602,-1.0444,-0.96693,3.3915,-0.9458,0.19179,0.00017312,0.2,0.24,0
0.16508,0.026596,0.78745,-0.82527,-1.0259,-0.94908,0.010471,0,0,0.3219,-0.19973,0,0.054449,0,0,0.60376,-0.016793,0,0.60399,-0.82472,-1.0264,-0.94908,2.9796,-0.93341,0.17627,0.00010981,0.22,0.24,0
0.17106,0.02665,0.76328,-0.82561,-1.0054,-0.93093,0.0085387,0,0,0.27385,-0.19353,0,0.044402,0,0,0.60569,-0.014898,0,0.60588,-0.8252,-1.0058,-0.93093,2.7134,-0.92064,0.15714,5.8015e-05,0.24,0.24,0
0.17603,0.026519,0.739,-0.82773,-0.98222,-0.91248,0.0070945,0,0,0.22037,-0.18132,0,0.036892,0,0,0.6096,-0.013243,0,0.60975,-0.8274,-0.98255,-0.91248,2.6237,-0.90748,0.13457,2.0868e-05,0.26,0.24,0
0.17988,0.026239,0.71452,-0.83154,-0.95647,-0.89366,0.0061973,0,0,0.16153,-0.16331,0,0.032226,0,0,0.61531,-0.012115,0,0.61544,-0.83123,-0.95678,-0.89366,2.8327,-0.89389,0.10873,-6.2502e-07,0.28,0.24,0
0.18249,0.025847,0.68977,-0.83688,-0.92815,-0.8744,0.0060466,0,0,0.097552,-0.13977,0,0.031442,0,0,0.62249,-0.011876,0,0.62262,-0.83648,-0.92855,-0.8744,3.7735,-0.87981,0.080153,-7.9272e-06,0.3,0.24,0
0.18378,0.025394,0.66472,-0.8434,-0.89746,-0.85462,0.0070039,0,0,0.029167,-0.11139,0,0.03642,0,0,0.63063,-0.012911,0,0.63078,-0.84251,-0.89835,-0.85462,7.2631,-0.86516,0.050884,-5.4962e-06,0.32,0.24,0
0.18366,0.024951,0.63932,-0.85757,-1.1183,-1.0723,0.01049,0,0,0.2776,-0.079842,0,0.039019,0,0,0.64109,-0.023315,0,0.64159,-0.85611,-1.1198,-1.0723,8.8092,-1.016,0.2497,0.0024431,0.34,0.24,0
0.19488,0.02419,0.62638,-0.87343,-1.3464,-1.2923,0.018166,0,0,0.54457,-0.070311,0,0.047231,0,0,0.65491,-0.036386,0,0.65596,-0.87274,-1.3471,-1.2923,2.1962,-1.1707,0.4495,0.0044318,0.36,0.24,0
0.20544,0.023676,0.61313,-0.87922,-1.3205,-1.2731,0.027583,0,0,0.51199,-0.061732,0,0.071717,0,0,0.66855,-0.045191,0,0.67009,-0.8775,-1.3223,-1.2731,3.5626,-1.1576,0.42231,0.0036919,0.38,0.24,0
0.21536,0.023387,0.59964,-0.88268,-1.2955,-1.2531,0.03794,0,0,0.48154,-0.055164,0,0.098643,0,0,0.67836,-0.057246,0,0.68076,-0.87922,-1.299,-1.2531,5.2072,-1.1438,0.39881,0.0031127,0.4,0.24,0
0.2247,0.023308,0.58599,-0.88243,-1.2728,-1.2326,0.049235,0,0,0.45515,-0.052266,0,0.12801,0,0,0.68281,-0.072267,0,0.68659,-0.87632,-1.2789,-1.2326,7.0796,-1.1293,0.3815,0.0027106,0.42,0.24,0
0.23357,0.02341,0.57232,-0.87647,-1.2536,-1.2113,0.060428,0,0,0.43534,-0.054927,0,0.15711,0,0,0.68011,-0.089933,0,0.68599,-0.86702,-1.263,-1.2113,8.8845,-1.1138,0.37287,0.0024908,0.44,0.24,0
0.24212,0.023592,0.55879,-0.86542,-1.241,-1.1907,0.069193,0,0,0.42287,-0.065337,0,0.1799,0,0,0.66851,-0.10933,0,0.6774,-0.85307,-1.2533,-1.1907,10.114,-1.099,0.37289,0.0024119,0.46,0.24,0
0.25049,0.023673,0.54558,-0.8503,-1.2314,-1.1701,0.071596,0,0,0.41574,-0.079737,0,0.18615,0,0,0.64743,-0.12617,0,0.65972,-0.8373,-1.2445,-1.1701,10.296,-1.0839,0.37554,0.0023648,0.48,0.24,0
0.25875,0.023445,0.53289,-0.82346,-0.99767,-0.946,0.068656,0,0,0.11204,-0.089546,0,0.26338,0,0,0.62302,-0.10143,0,0.63213,-0.77338,-1.0477,-0.946,31.694,-0.92238,0.25395,0.0011219,0.5,0.24,0
0.25497,0.026262,0.50843,-0.80371,-0.78141,-0.72975,0.061655,0,0,-0.19228,-0.13432,0,0.3206,0,0,0.60347,-0.067728,0,0.60731,-0.72991,-0.85522,-0.72975,50.124,-0.77163,0.12539,-0.00010124,0.52,0.24,0
0.25106,0.028393,0.48461,-0.7895,-0.77305,-0.71107,0.053423,0,0,-0.20392,-0.16115,0,0.2778,0,0,0.58855,-0.062751,0,0.59192,-0.72723,-0.83533,-0.71107,49.376,-0.75788,0.11702,-7.7039e-05,0.54,0.24,0
0.24681,0.029854,0.46135,-0.77839,-0.76025,-0.69227,0.045123,0,0,-0.22392,-0.17676,0,0.23464,0,0,0.57634,-0.054985,0,0.57897,-0.72329,-0.81534,-0.69227,50.682,-0.74363,0.11087,-5.1951e-05,0.56,0.24,0
0.2421,0.030769,0.43851,-0.76942,-0.74475,-0.67351,0.037809,0,0,-0.24938,-0.18524,0,0.19661,0,0,0.56723,-0.046934,0,0.56917,-0.71732,-0.79686,-0.67351,54.033,-0.72923,0.10831,-3.1117e-05,0.58,0.24,0
0.23683,0.031245,0.41597,-0.76226,-0.72792,-0.65504,0.031432,0,0,-0.27878,-0.18949,0,0.16345,0,0,0.56071,-0.039494,0,0.5621,-0.70927,-0.78091,-0.65504,59.325,-0.71507,0.10935,-1.5893e-05,0.6,0.24,0
0.23095,0.031371,0.39365,-0.75642,-0.71012,-0.63679,0.025849,0,0,-0.31104,-0.19067,0,0.13442,0,0,0.55609,-0.032845,0,0.55706,-0.69857,-0.76797,-0.63679,65.922,-0.70111,0.11367,-7.5682e-06,0.62,0.24,0
0.22439,0.031212,0.37148,-0.75166,-0.69163,-0.61873,0.020893,0,0,-0.34562,-0.18955,0,0.10864,0,0,0.55288,-0.026923,0,0.55354,-0.68507,-0.75821,-0.61873,72.579,-0.68734,0.12085,-7.6346e-06,0.64,0.24,0
0.21712,0.030822,0.34942,-0.74782,-0.6726,-0.60084,0.016425,0,0,-0.38216,-0.18659,0,0.085413,0,0,0.55077,-0.021589,0,0.55119,-0.66917,-0.75125,-0.60084,78.204,-0.67375,0.13044,-1.7953e-05,0.66,0.24,0
0.20911,0.03024,0.32742,-0.74479,-0.65313,-0.58309,0.012326,0,0,-0.42043,-0.18211,0,0.064096,0,0,0.54955,-0.016684,0,0.5498,-0.6515,-0.74642,-0.58309,82.473,-0.66034,0.14207,-4.0738e-05,0.68,0.24,0
0.20031,0.029501,0.30545,-0.74252,-0.63329,-0.56547,0.0084904,0,0,-0.46033,-0.17633,0,0.04415,0,0,0.54911,-0.012056,0,0.54924,-0.63263,-0.74317,-0.56547,85.582,-0.64709,0.15542,-7.8629e-05,0.7,0.24,0
0.19069,0.028636,0.28349,-0.74098,-0.61312,-0.54798,0.0048281,0,0,-0.5018,-0.16938,0,0.025106,0,0,0.5494,-0.0075566,0,0.54945,-0.61294,-0.74116,-0.54798,87.84,-0.63402,0.17026,-0.00013477,0.72,0.24,0
0.18024,0.027668,0.2615,-0.74019,-0.59267,-0.53061,0.0012659,0,0,-0.54491,-0.16136,0,0.0065827,0,0,0.55041,-0.003042,0,0.55042,-0.59266,-0.7402,-0.53061,89.508,-0.62116,0.18648,-0.00021297,0.74,0.24,0
0.1689,0.026622,0.23946,-0.74021,-0.57197,-0.51339,-0.0022495,0,0,-0.58976,-0.15233,0,-0.011697,0,0,0.55222,0.0016351,0,0.55222,-0.57194,-0.74025,-0.51339,-89.234,-0.60852,0.20398,-0.00031786,0.76,0.24,0
0.15664,0.025523,0.21732,-0.74115,-0.55105,-0.49632,-0.0057408,0,0,-0.63655,-0.14229,0,-0.029852,0,0,0.55495,0.0066273,0,0.55499,-0.55088,-0.74133,-0.49632,-88.272,-0.59618,0.22279,-0.0004552,0.78,0.24,0
0.14344,0.024398,0.19506,-0.74316,-0.52994,-0.47946,-0.0091829,0,0,-0.68561,-0.13126,0,-0.047751,0,0,0.55882,0.012091,0,0.55895,-0.52955,-0.74355,-0.47946,-87.538,-0.58419,0.24295,-0.00063225,0.8,0.24,0
0.12922,0.02328,0.17262,-0.74643,-0.50869,-0.46285,-0.012471,0,0,-0.73731,-0.1192,0,-0.064851,0,0,0.56416,0.018167,0,0.56446,-0.50804,-0.74708,-0.46285,-87.005,-0.57265,0.26455,-0.00085809,0.82,0.24,0
0.11394,0.022212,0.14993,-0.75117,-0.48735,-0.44652,-0.015386,0,0,-0.79209,-0.10616,0,-0.080005,0,0,0.57149,0.024921,0,0.57205,-0.48646,-0.75206,-0.44652,-86.674,-0.56168,0.28766,-0.0011435,0.84,0.24,0
0.097537,0.021251,0.1269,-0.75751,-0.46607,-0.43052,-0.017526,0,0,-0.85017,-0.092417,0,-0.091134,0,0,0.58156,0.032174,0,0.58247,-0.46502,-0.75856,-0.43052,-86.571,-0.55137,0.31222,-0.0014991,0.86,0.24,0
0.079936,0.020466,0.1034,-0.76484,-0.44494,-0.41464,-0.018514,0,0,-0.91053,-0.078792,0,-0.096272,0,0,0.59493,0.039028,0,0.59626,-0.44387,-0.76591,-0.41464,-86.699,-0.54147,0.3376,-0.0019264,0.88,0.24,0
0.061116,0.019886,0.079305,-0.77341,-0.42556,-0.39934,-0.018106,0,0,-0.97257,-0.068164,0,-0.094149,0,0,0.6113,0.042907,0,0.61288,-0.42462,-0.77435,-0.39934,-87.028,-0.53277,0.36303,-0.0024171,0.9,0.24,0
0.041033,0.019468,0.0545,-0.78015,-0.44071,-0.40713,-0.016937,0,0,-0.73596,-0.058196,0,-0.066511,0,0,0.63314,0.06203,0,0.63663,-0.43986,-0.781,-0.40713,-87.14,-0.54266,0.35879,-0.0023182,0.92,0.24,0
0.031677,0.019986,0.041577,-0.79422,-0.47848,-0.42339,-0.015505,0,0,-0.48209,-0.071617,0,-0.040313,0,0,0.6611,0.07127,0,0.66507,-0.47772,-0.79498,-0.42339,-87.195,-0.56536,0.34763,-0.0019811,0.94,0.24,0
0.021749,0.020367,0.028056,-0.80295,-0.46657,-0.40891,-0.014052,0,0,-0.51225,-0.074958,0,-0.036536,0,0,0.68622,0.050573,0,0.68809,-0.46599,-0.80354,-0.40891,-87.612,-0.55948,0.36941,-0.0023821,0.96,0.24,0
0.011187,0.020541,0.014128,-0.80923,-0.44691,-0.39097,-0.0086175,0,0,-0.54373,-0.072726,0,-0.022406,0,0,0.7014,0.025521,0,0.7018,-0.44671,-0.80943,-0.39097,-88.638,-0.54904,0.39356,-0.0029203,0.98,0.24,0
0,0.020578,0,-0.7943,-0.41909,-0.36402,0.0007034,0,0,-0.55937,-0.071592,0,0.0018288,0,0,0.70639,2.6021e-18,0,0.70631,-0.41909,-0.7943,-0.36402,89.893,-0.5258,0.40556,-0.0032142,1,0.24,0
0,0.018183,1,-0.93309,-1.8806,-1.8441,0.00068028,0,0,1.1843,-0.047418,0,0.0017687,0,0,0.6637,-8.8427e-16,0,0.66369,-0.93309,-1.8806,-1.8441,0.041137,-1.5526,0.92979,0.041069,0,0.26,0
0.023686,0.018218,0.98673,-0.91465,-1.8559,-1.8179,0.0039829,0,0,1.1742,-0.04938,0,0.010356,0,0,0.66193,-0.0062123,0,0.66195,-0.91463,-1.8559,-1.8179,0.24245,-1.5295,0.92284,0.040134,0.02,0.26,0
0.046968,0.018323,0.97352,-0.90972,-1.8412,-1.7988,0.0077489,0,0,1.1558,-0.055082,0,0.020147,0,0,0.65675,-0.012115,0,0.65687,-0.90965,-1.8412,-1.7988,0.47661,-1.5166,0.91109,0.038559,0.04,0.26,0
0.069918,0.018487,0.96046,-0.90248,-1.8289,-1.7799,0.010973,0,0,1.1406,-0.063713,0,0.028529,0,0,0.64858,-0.017387,0,0.64883,-0.90235,-1.829,-1.7799,0.67851,-1.5037,0.90309,0.03745,0.06,0.26,0
0.092592,0.01869,0.94758,-0.89361,-1.818,-1.7611,0.013503,0,0,1.1277,-0.074011,0,0.035107,0,0,0.63814,-0.02171,0,0.63853,-0.89341,-1.8182,-1.7611,0.8367,-1.4909,0.89758,0.036633,0.08,0.26,0
0.11503,0.018919,0.93493,-0.87116,-1.4448,-1.396,0.015108,0,0,0.80373,-0.084636,0,0.058721,0,0,0.62789,-0.018623,0,0.62821,-0.87053,-1.4454,-1.396,2.4117,-1.2373,0.55211,0.018442,0.1,0.26,0
0.12474,0.019908,0.91,-0.85104,-1.0803,-1.0344,0.015166,0,0,0.47674,-0.11936,0,0.078865,0,0,0.62032,-0.014546,0,0.6205,-0.85005,-1.0813,-1.0344,3.7682,-0.98859,0.21175,0.00040811,0.12,0.26,0
0.13409,0.020768,0.88531,-0.84234,-1.0754,-1.018,0.014304,0,0,0.45664,-0.14927,0,0.074379,0,0,0.61465,-0.016025,0,0.61486,-0.84146,-1.0762,-1.018,3.4992,-0.97856,0.21175,0.00036595,0.14,0.26,0
0.14301,0.021467,0.86083,-0.83509,-1.0675,-1.0012,0.013112,0,0,0.43184,-0.17235,0,0.068181,0,0,0.60988,-0.016941,0,0.61012,-0.83435,-1.0682,-1.0012,3.2193,-0.96791,0.20858,0.00030898,0.16,0.26,0
0.15137,0.022002,0.83652,-0.82965,-1.0563,-0.98404,0.011938,0,0,0.40142,-0.18787,0,0.062076,0,0,0.60644,-0.017429,0,0.60669,-0.82902,-1.0569,-0.98404,3.0067,-0.95666,0.2016,0.00024294,0.18,0.26,0
0.15906,0.022386,0.81231,-0.82612,-1.0419,-0.96657,0.011008,0,0,0.36519,-0.19597,0,0.057242,0,0,0.60463,-0.017641,0,0.60489,-0.82556,-1.0425,-0.96657,2.9122,-0.94488,0.19068,0.00017523,0.2,0.26,0
0.16598,0.022647,0.78814,-0.82446,-1.0246,-0.9488,0.010436,0,0,0.32327,-0.19714,0,0.054266,0,0,0.60463,-0.017715,0,0.60489,-0.82392,-1.0252,-0.9488,2.9765,-0.93263,0.17596,0.00011278,0.22,0.26,0
0.17199,0.022813,0.76394,-0.82459,-1.0045,-0.9307,0.010262,0,0,0.27591,-0.19194,0,0.053362,0,0,0.60646,-0.017784,0,0.60672,-0.824,-1.0051,-0.9307,3.2535,-0.91994,0.15767,6.0991e-05,0.24,0.26,0
0.17701,0.022915,0.73963,-0.82638,-0.98181,-0.91227,0.010506,0,0,0.22332,-0.1808,0,0.054631,0,0,0.61006,-0.017982,0,0.61033,-0.82567,-0.98251,-0.91227,3.8494,-0.90682,0.13608,2.3217e-05,0.26,0.26,0
0.18093,0.022979,0.71514,-0.82969,-0.95657,-0.89345,0.011206,0,0,0.16576,-0.16412,0,0.05827,0,0,0.61522,-0.018466,0,0.61551,-0.82871,-0.95755,-0.89345,5.0087,-0.89323,0.11158,6.0698e-07,0.28,0.26,0
0.18364,0.023036,0.69041,-0.8343,-0.92895,-0.87418,0.012445,0,0,0.1037,-0.14241,0,0.064716,0,0,0.62159,-0.019419,0,0.6219,-0.83269,-0.93056,-0.87418,7.3663,-0.87914,0.085089,-8.2206e-06,0.3,0.26,0
0.18507,0.023118,0.66541,-0.8398,-0.8993,-0.85444,0.014362,0,0,0.038047,-0.11665,0,0.074682,0,0,0.62865,-0.021031,0,0.62901,-0.83652,-0.90259,-0.85444,12.884,-0.86451,0.059182,-7.4483e-06,0.32,0.26,0
0.18516,0.02326,0.64012,-0.85287,-1.1243,-1.0733,0.017998,0,0,0.28761,-0.08854,0,0.068396,0,0,0.63752,-0.035199,0,0.63862,-0.84924,-1.128,-1.0733,11.815,-1.0168,0.2616,0.0026062,0.34,0.26,0
0.19658,0.022683,0.62726,-0.86668,-1.3547,-1.2937,0.024892,0,0,0.5551,-0.079335,0,0.064718,0,0,0.64901,-0.050774,0,0.65102,-0.86541,-1.356,-1.2937,2.9123,-1.1717,0.46257,0.004774,0.36,0.26,0
0.20737,0.022324,0.61416,-0.87045,-1.3293,-1.2741,0.032653,0,0,0.52472,-0.071784,0,0.084896,0,0,0.66007,-0.056514,0,0.66249,-0.86814,-1.3316,-1.2741,4.0501,-1.1579,0.43756,0.0040529,0.38,0.26,0
0.21757,0.022146,0.60086,-0.87185,-1.305,-1.2539,0.040296,0,0,0.49669,-0.066414,0,0.10477,0,0,0.66748,-0.064071,0,0.67054,-0.86813,-1.3087,-1.2539,5.2699,-1.1436,0.4159,0.0034796,0.4,0.26,0
0.22724,0.02211,0.58746,-0.86999,-1.2826,-1.2332,0.047536,0,0,0.47221,-0.06416,0,0.12359,0,0,0.66991,-0.073255,0,0.67389,-0.86458,-1.288,-1.2332,6.488,-1.1286,0.39886,0.0030528,0.42,0.26,0
0.23646,0.022156,0.57406,-0.86445,-1.263,-1.2123,0.053482,0,0,0.45221,-0.065927,0,0.13905,0,0,0.6662,-0.083611,0,0.67142,-0.8574,-1.2701,-1.2123,7.5112,-1.1133,0.38704,0.0027554,0.44,0.26,0
0.24532,0.022188,0.56081,-0.85535,-1.246,-1.1912,0.056623,0,0,0.43663,-0.071241,0,0.14722,0,0,0.65569,-0.093951,0,0.66241,-0.84731,-1.2541,-1.1912,8.0828,-1.0975,0.37926,0.0025444,0.46,0.26,0
0.25392,0.022083,0.54784,-0.84372,-1.2296,-1.1698,0.056098,0,0,0.42396,-0.077731,0,0.14586,0,0,0.63877,-0.10226,0,0.64698,-0.83574,-1.2376,-1.1698,8.1054,-1.0811,0.37265,0.0023642,0.48,0.26,0
0.26228,0.021735,0.53526,-0.8216,-0.99318,-0.94588,0.05279,0,0,0.11411,-0.081986,0,0.20299,0,0,0.62014,-0.079608,0,0.6258,-0.78004,-1.0347,-0.94588,32.066,-0.92022,0.23896,0.0011074,0.5,0.26,0
0.25849,0.023785,0.5108,-0.80452,-0.77376,-0.72888,0.048112,0,0,-0.19666,-0.11667,0,0.25018,0,0,0.60524,-0.052735,0,0.60757,-0.73863,-0.83965,-0.72888,53.865,-0.76905,0.10623,-5.9825e-05,0.52,0.26,0
0.25442,0.025393,0.48684,-0.7928,-0.76532,-0.71086,0.042354,0,0,-0.21305,-0.14161,0,0.22024,0,0,0.59325,-0.049694,0,0.59535,-0.73453,-0.82359,-0.71086,53.986,-0.75633,0.10296,-4.6211e-05,0.54,0.26,0
0.24996,0.026534,0.46334,-0.78272,-0.75317,-0.69244,0.036323,0,0,-0.23473,-0.1579,0,0.18888,0,0,0.58253,-0.044902,0,0.58427,-0.72873,-0.80716,-0.69244,56.067,-0.74277,0.10156,-3.1558e-05,0.56,0.26,0
0.24503,0.027256,0.44024,-0.77435,-0.73868,-0.67403,0.030699,0,0,-0.26084,-0.1681,0,0.15963,0,0,0.57371,-0.039415,0,0.57507,-0.72101,-0.79202,-0.67403,60.078,-0.72902,0.10289,-1.9237e-05,0.58,0.26,0
0.23953,0.027629,0.41745,-0.76738,-0.7226,-0.65572,0.025679,0,0,-0.29032,-0.17391,0,0.13353,0,0,0.56685,-0.033968,0,0.56786,-0.71092,-0.77906,-0.65572,65.541,-0.71523,0.10701,-1.1351e-05,0.6,0.26,0
0.23341,0.027714,0.39489,-0.7616,-0.70544,-0.63756,0.021214,0,0,-0.32251,-0.17649,0,0.11031,0,0,0.5617,-0.028864,0,0.56244,-0.69832,-0.76871,-0.63756,71.465,-0.70153,0.11368,-9.5517e-06,0.62,0.26,0
0.22663,0.027565,0.37251,-0.75685,-0.68745,-0.61954,0.017217,0,0,-0.357,-0.17655,0,0.089528,0,0,0.55798,-0.024164,0,0.55851,-0.68341,-0.76089,-0.61954,76.806,-0.68795,0.1226,-1.5697e-05,0.64,0.26,0
0.21913,0.027222,0.35025,-0.75303,-0.6688,-0.60168,0.0136,0,0,-0.39353,-0.17453,0,0.070722,0,0,0.55546,-0.01983,0,0.55581,-0.66666,-0.75518,-0.60168,81.052,-0.6745,0.13345,-3.1954e-05,0.66,0.26,0
0.21089,0.026722,0.32807,-0.75008,-0.64962,-0.58394,0.010286,0,0,-0.43194,-0.17075,0,0.053488,0,0,0.55394,-0.015782,0,0.55416,-0.64858,-0.75112,-0.58394,84.213,-0.66121,0.14601,-6.0865e-05,0.68,0.26,0
0.20186,0.026095,0.30594,-0.74794,-0.62998,-0.56634,0.0072056,0,0,-0.47214,-0.16546,0,0.037469,0,0,0.55332,-0.011932,0,0.55345,-0.62954,-0.74838,-0.56634,86.517,-0.64809,0.16008,-0.00010541,0.7,0.26,0
0.192,0.025365,0.28381,-0.74661,-0.60995,-0.54887,0.0043017,0,0,-0.51412,-0.15881,0,0.022369,0,0,0.55355,-0.0081886,0,0.55361,-0.60982,-0.74674,-0.54887,88.199,-0.63514,0.17552,-0.00016908,0.72,0.26,0
0.18129,0.024557,0.26165,-0.74611,-0.58958,-0.53153,0.0015313,0,0,-0.55789,-0.15093,0,0.0079628,0,0,0.55462,-0.0044613,0,0.55464,-0.58957,-0.74612,-0.53153,89.439,-0.62241,0.19226,-0.000256,0.74,0.26,0
0.16969,0.023693,0.23944,-0.74647,-0.56893,-0.51434,-0.0011291,0,0,-0.60355,-0.14193,0,-0.0058714,0,0,0.55661,-0.00066095,0,0.55661,-0.56892,-0.74648,-0.51434,-89.636,-0.60991,0.21023,-0.00037099,0.76,0.26,0
0.15715,0.022796,0.21712,-0.74776,-0.54805,-0.4973,-0.0036731,0,0,-0.65119,-0.13193,0,-0.0191,0,0,0.55963,0.0032992,0,0.55964,-0.54798,-0.74783,-0.4973,-88.947,-0.5977,0.22942,-0.00051966,0.78,0.26,0
0.14364,0.021892,0.19467,-0.75003,-0.52702,-0.48045,-0.0060483,0,0,-0.70091,-0.12109,0,-0.031451,0,0,0.56388,0.0074937,0,0.56394,-0.52685,-0.75019,-0.48045,-88.448,-0.58583,0.24979,-0.00070827,0.8,0.26,0
0.12911,0.021011,0.17201,-0.7533,-0.50596,-0.46378,-0.0081381,0,0,-0.75275,-0.10965,0,-0.042318,0,0,0.56963,0.011957,0,0.56976,-0.50569,-0.75357,-0.46378,-88.118,-0.57435,0.27127,-0.00094332,0.82,0.26,0
0.11353,0.020192,0.1491,-0.75755,-0.48504,-0.44732,-0.0097476,0,0,-0.80658,-0.098061,0,-0.050688,0,0,0.57717,0.016619,0,0.57742,-0.48469,-0.7579,-0.44732,-87.954,-0.56331,0.29368,-0.0012302,0.84,0.26,0
0.096851,0.019478,0.12584,-0.76253,-0.46451,-0.43103,-0.010656,0,0,-0.8619,-0.087043,0,-0.055414,0,0,0.58679,0.021163,0,0.5872,-0.46413,-0.76291,-0.43103,-87.955,-0.55269,0.31663,-0.0015704,0.86,0.26,0
0.079054,0.018907,0.10215,-0.76801,-0.44487,-0.41494,-0.010722,0,0,-0.91799,-0.077814,0,-0.055752,0,0,0.59847,0.024823,0,0.59902,-0.44451,-0.76837,-0.41494,-88.102,-0.54261,0.33961,-0.0019603,0.88,0.26,0
0.060131,0.018496,0.077961,-0.77363,-0.42617,-0.39892,-0.010089,0,0,-0.97424,-0.070852,0,-0.052463,0,0,0.61162,0.026479,0,0.61223,-0.42588,-0.77392,-0.39892,-88.338,-0.53291,0.36228,-0.0023964,0.9,0.26,0
0.040084,0.018221,0.053223,-0.77767,-0.44406,-0.40644,-0.008547,0,0,-0.73319,-0.065208,0,-0.034236,0,0,0.6282,0.037609,0,0.62953,-0.44384,-0.77789,-0.40644,-88.534,-0.54272,0.35447,-0.0022163,0.92,0.26,0
0.030803,0.0185,0.040464,-0.78556,-0.47814,-0.41957,-0.0069795,0,0,-0.47578,-0.07614,0,-0.018147,0,0,0.6493,0.043766,0,0.65087,-0.47798,-0.78572,-0.41957,-88.7,-0.56109,0.34071,-0.0018318,0.94,0.26,0
0.021053,0.018756,0.027251,-0.78971,-0.46886,-0.40482,-0.0058051,0,0,-0.50036,-0.083245,0,-0.015093,0,0,0.66884,0.031831,0,0.66962,-0.46875,-0.78981,-0.40482,-88.964,-0.55446,0.35734,-0.002093,0.96,0.26,0
0.010789,0.018905,0.01371,-0.79241,-0.45369,-0.38754,-0.003707,0,0,-0.52633,-0.085995,0,-0.0096381,0,0,0.68127,0.016594,0,0.68146,-0.45365,-0.79245,-0.38754,-89.373,-0.54455,0.37624,-0.0024531,0.98,0.26,0
0,0.018949,0,-0.77605,-0.42756,-0.36108,0.000834,0,0,-0.53946,-0.086417,0,0.0021684,0,0,0.68551,-9.541e-18,0,0.68547,-0.42755,-0.77605,-0.36108,89.863,-0.52156,0.38605,-0.0026621,1,0.26,0
0,0.017175,1,-0.92899,-1.8831,-1.8436,-2.4723e-05,0,0,1.189,-0.051328,0,-6.4281e-05,0,0,0.6593,-8.9425e-16,0,0.6593,-0.92899,-1.8831,-1.8436,-0.0014846,-1.5519,0.93501,0.04173,0,0.28,0
0.023781,0.017174,0.98681,-0.91077,-1.8585,-1.8176,0.0010215,0,0,1.1789,-0.053149,0,0.0026558,0,0,0.65762,-0.0026653,0,0.65762,-0.91076,-1.8585,-1.8176,0.061755,-1.5289,0.92794,0.040769,0.02,0.28,0
0.047155,0.017173,0.97369,-0.90612,-1.8436,-1.7986,0.0021069,0,0,1.1602,-0.058454,0,0.0054779,0,0,0.6527,-0.0052932,0,0.65273,-0.90611,-1.8436,-1.7986,0.12877,-1.5161,0.9158,0.039128,0.04,0.28,0
0.07019,0.017174,0.96071,-0.89929,-1.8309,-1.7798,0.0032621,0,0,1.1446,-0.066519,0,0.0084815,0,0,0.64497,-0.007848,0,0.64504,-0.89928,-1.831,-1.7798,0.20061,-1.5033,0.90717,0.037932,0.06,0.28,0
0.09294,0.017183,0.9479,-0.89088,-1.8197,-1.7611,0.0045256,0,0,1.1313,-0.076242,0,0.011767,0,0,0.63511,-0.010298,0,0.63522,-0.89086,-1.8197,-1.7611,0.27915,-1.4906,0.90099,0.037028,0.08,0.28,0
0.11544,0.017208,0.9353,-0.86896,-1.4458,-1.3959,0.0057038,0,0,0.80755,-0.086467,0,0.022226,0,0,0.62545,-0.0094655,0,0.62554,-0.86886,-1.4459,-1.3959,0.91016,-1.2369,0.55396,0.018619,0.1,0.28,0
0.12524,0.017527,0.91046,-0.84915,-1.0801,-1.034,0.0062928,0,0,0.48067,-0.11995,0,0.032723,0,0,0.61832,-0.0085273,0,0.61839,-0.84898,-1.0803,-1.034,1.5592,-0.98777,0.21202,0.00041191,0.12,0.28,0
0.13467,0.017802,0.88584,-0.84071,-1.075,-1.0176,0.0067378,0,0,0.46,-0.14917,0,0.035037,0,0,0.61298,-0.010671,0,0.61308,-0.84051,-1.0752,-1.0176,1.6459,-0.97778,0.21185,0.00036949,0.14,0.28,0
0.14364,0.018044,0.86142,-0.83361,-1.0671,-1.0009,0.0073106,0,0,0.43502,-0.1721,0,0.038015,0,0,0.60849,-0.012745,0,0.60862,-0.83339,-1.0674,-1.0009,1.7915,-0.96722,0.20883,0.0003132,0.16,0.28,0
0.15207,0.018266,0.83716,-0.82822,-1.0562,-0.98389,0.0080589,0,0,0.40474,-0.18789,0,0.041906,0,0,0.60525,-0.014757,0,0.60543,-0.82794,-1.0564,-0.98389,2.0224,-0.95609,0.20224,0.00024791,0.18,0.28,0
0.15983,0.018482,0.813,-0.82465,-1.0421,-0.96652,0.0090265,0,0,0.36887,-0.1965,0,0.046938,0,0,0.60357,-0.01672,0,0.6038,-0.82428,-1.0425,-0.96652,2.373,-0.94442,0.19185,0.0001805,0.2,0.28,0
0.16682,0.018711,0.78887,-0.82289,-1.0251,-0.94884,0.010253,0,0,0.32746,-0.19832,0,0.053317,0,0,0.60362,-0.018646,0,0.6039,-0.82237,-1.0256,-0.94884,2.8952,-0.93228,0.17777,0.00011779,0.22,0.28,0
0.17293,0.018972,0.76471,-0.82284,-1.0054,-0.93082,0.011774,0,0,0.28074,-0.19384,0,0.061223,0,0,0.60543,-0.020549,0,0.60577,-0.82209,-1.0061,-0.93082,3.6754,-0.91968,0.16026,6.5169e-05,0.24,0.28,0
0.17805,0.019287,0.74044,-0.8244,-0.98303,-0.91245,0.013609,0,0,0.22892,-0.18351,0,0.070765,0,0,0.60892,-0.022446,0,0.60933,-0.82324,-0.98419,-0.91245,4.868,-0.90662,0.13966,2.6109e-05,0.26,0.28,0
0.18209,0.019674,0.716,-0.82739,-0.95817,-0.89367,0.015758,0,0,0.17231,-0.16772,0,0.081944,0,0,0.61387,-0.024353,0,0.61436,-0.82552,-0.96005,-0.89367,6.7746,-0.89308,0.11651,1.8474e-06,0.28,0.28,0
0.18494,0.02015,0.69133,-0.83158,-0.93099,-0.87443,0.018191,0,0,0.11141,-0.14703,0,0.094593,0,0,0.61993,-0.026295,0,0.6205,-0.82836,-0.93421,-0.87443,10.052,-0.879,0.091925,-8.8531e-06,0.3,0.28,0
0.18654,0.020728,0.6664,-0.83657,-0.90181,-0.85471,0.020841,0,0,0.047174,-0.12244,0,0.10837,0,0,0.62658,-0.028306,0,0.62723,-0.83048,-0.9079,-0.85471,16.288,-0.86436,0.068589,-9.8694e-06,0.32,0.28,0
0.18683,0.021409,0.6412,-0.84914,-1.1297,-1.0746,0.024381,0,0,0.29664,-0.095618,0,0.093476,0,0,0.63481,-0.045643,0,0.63664,-0.84341,-1.1355,-1.0746,13.303,-1.0178,0.2724,0.0027512,0.34,0.28,0
0.19841,0.021016,0.62841,-0.86199,-1.3618,-1.2955,0.030179,0,0,0.56361,-0.086104,0,0.078464,0,0,0.64533,-0.063228,0,0.64844,-0.86018,-1.3636,-1.2955,3.4431,-1.1731,0.47307,0.0050603,0.36,0.28,0
0.20938,0.020805,0.61539,-0.86491,-1.336,-1.2757,0.036106,0,0,0.53397,-0.078444,0,0.093876,0,0,0.65526,-0.065996,0,0.65858,-0.86216,-1.3388,-1.2757,4.3574,-1.1589,0.44839,0.0043226,0.38,0.28,0
0.21977,0.02073,0.6022,-0.86557,-1.3113,-1.2553,0.041145,0,0,0.5066,-0.07286,0,0.10698,0,0,0.66162,-0.069217,0,0.66523,-0.86181,-1.3151,-1.2553,5.2299,-1.1441,0.42652,0.0037223,0.4,0.28,0
0.22964,0.020742,0.58892,-0.86354,-1.2881,-1.2344,0.044992,0,0,0.48215,-0.069822,0,0.11698,0,0,0.66327,-0.072885,0,0.66726,-0.85883,-1.2929,-1.2344,5.9828,-1.1287,0.40796,0.0032474,0.42,0.28,0
0.23905,0.020773,0.57567,-0.85863,-1.2667,-1.2133,0.047121,0,0,0.46102,-0.069447,0,0.12251,0,0,0.65941,-0.076804,0,0.66388,-0.85326,-1.272,-1.2133,6.5024,-1.1129,0.39271,0.002877,0.44,0.28,0
0.24808,0.020743,0.56255,-0.85109,-1.2465,-1.1918,0.04699,0,0,0.44295,-0.071067,0,0.12217,0,0,0.64986,-0.080462,0,0.65485,-0.84558,-1.252,-1.1918,6.6852,-1.0965,0.37992,0.0025798,0.46,0.28,0
0.25677,0.020564,0.54967,-0.84144,-1.2263,-1.17,0.044394,0,0,0.42713,-0.073222,0,0.11542,0,0,0.63523,-0.083042,0,0.6407,-0.83638,-1.2314,-1.17,6.495,-1.0793,0.36817,0.0023247,0.48,0.28,0
0.26517,0.020166,0.53714,-0.82179,-0.98931,-0.94618,0.040529,0,0,0.11358,-0.07475,0,0.15573,0,0,0.61947,-0.062776,0,0.62301,-0.7857,-1.0254,-0.94618,33.216,-0.91909,0.22788,0.0010833,0.5,0.28,0
0.26132,0.021595,0.51265,-0.8062,-0.76877,-0.72881,0.036611,0,0,-0.2012,-0.10387,0,0.19037,0,0,0.60685,-0.040724,0,0.60824,-0.74636,-0.8286,-0.72881,58.539,-0.76793,0.092271,-3.5477e-05,0.52,0.28,0
0.25712,0.022728,0.48859,-0.79566,-0.75973,-0.71091,0.032432,0,0,-0.22035,-0.12692,0,0.16865,0,0,0.59638,-0.038435,0,0.59764,-0.74062,-0.81477,-0.71091,59.492,-0.75543,0.092649,-2.7138e-05,0.54,0.28,0
0.2525,0.023538,0.46494,-0.78626,-0.74795,-0.69273,0.027995,0,0,-0.24318,-0.14356,0,0.14558,0,0,0.58662,-0.035291,0,0.58769,-0.73318,-0.80103,-0.69273,62.193,-0.74232,0.094782,-1.8433e-05,0.56,0.28,0
0.24739,0.024046,0.44166,-0.77817,-0.734,-0.67448,0.023792,0,0,-0.2696,-0.15474,0,0.12372,0,0,0.57816,-0.031712,0,0.57904,-0.72362,-0.78855,-0.67448,66.436,-0.72888,0.099101,-1.1844e-05,0.58,0.28,0
0.24172,0.024289,0.41869,-0.77133,-0.71847,-0.65628,0.019985,0,0,-0.29913,-0.16168,0,0.10392,0,0,0.57126,-0.028034,0,0.57195,-0.71176,-0.77804,-0.65628,71.454,-0.71536,0.10558,-9.2366e-06,0.6,0.28,0
0.23542,0.024311,0.39596,-0.76561,-0.70176,-0.63819,0.016585,0,0,-0.33129,-0.16528,0,0.086242,0,0,0.5659,-0.02445,0,0.56643,-0.69771,-0.76966,-0.63819,76.273,-0.70185,0.11403,-1.24e-05,0.62,0.28,0
0.22847,0.024151,0.37341,-0.76089,-0.68415,-0.62022,0.013544,0,0,-0.36575,-0.16622,0,0.07043,0,0,0.56192,-0.02103,0,0.56231,-0.68183,-0.76322,-0.62022,80.279,-0.68842,0.12423,-2.3316e-05,0.64,0.28,0
0.22079,0.023841,0.35101,-0.75711,-0.66581,-0.60238,0.010808,0,0,-0.40231,-0.16493,0,0.056204,0,0,0.55915,-0.017782,0,0.55944,-0.66455,-0.75838,-0.60238,83.34,-0.6751,0.13602,-4.4302e-05,0.66,0.28,0
0.21237,0.02341,0.32868,-0.75421,-0.64688,-0.58467,0.0083276,0,0,-0.44081,-0.16175,0,0.043304,0,0,0.55745,-0.014684,0,0.55764,-0.64624,-0.75485,-0.58467,85.59,-0.66192,0.14925,-7.8068e-05,0.68,0.28,0
0.20316,0.022883,0.30641,-0.75216,-0.62744,-0.56708,0.0060603,0,0,-0.4812,-0.15692,0,0.031514,0,0,0.55671,-0.011703,0,0.55683,-0.62714,-0.75245,-0.56708,87.225,-0.64889,0.16382,-0.00012777,0.7,0.28,0
0.19313,0.022283,0.28415,-0.75095,-0.60756,-0.54963,0.003974,0,0,-0.52345,-0.15062,0,0.020665,0,0,0.55687,-0.0088042,0,0.55694,-0.60745,-0.75106,-0.54963,88.414,-0.63605,0.17964,-0.00019709,0.72,0.28,0
0.18222,0.021631,0.26186,-0.7506,-0.58731,-0.5323,0.0020466,0,0,-0.56757,-0.14302,0,0.010642,0,0,0.55794,-0.0059538,0,0.55797,-0.58729,-0.75062,-0.5323,89.282,-0.6234,0.19668,-0.00029024,0.74,0.28,0
0.17042,0.020945,0.23951,-0.75112,-0.56676,-0.51512,0.0002693,0,0,-0.61359,-0.13428,0,0.0014003,0,0,0.55998,-0.0031192,0,0.55999,-0.56676,-0.75112,-0.51512,89.916,-0.611,0.21488,-0.00041205,0.76,0.28,0
0.15768,0.020246,0.21706,-0.75252,-0.546,-0.49809,-0.0013476,0,0,-0.66153,-0.12458,0,-0.0070076,0,0,0.56311,-0.00027286,0,0.56311,-0.546,-0.75253,-0.49809,-89.626,-0.59887,0.23419,-0.00056777,0.78,0.28,0
0.14396,0.019554,0.19446,-0.75481,-0.52515,-0.48122,-0.002768,0,0,-0.71134,-0.11422,0,-0.014393,0,0,0.56748,0.0025995,0,0.56749,-0.52511,-0.75484,-0.48122,-89.31,-0.58706,0.25453,-0.00076271,0.8,0.28,0
0.12923,0.018894,0.17166,-0.75791,-0.50437,-0.46451,-0.003923,0,0,-0.76282,-0.10362,0,-0.0204,0,0,0.57329,0.0054809,0,0.57332,-0.50431,-0.75797,-0.46451,-89.114,-0.5756,0.27572,-0.0010013,0.82,0.28,0
0.11345,0.01829,0.1486,-0.76165,-0.4839,-0.44797,-0.0047196,0,0,-0.81558,-0.093438,0,-0.024542,0,0,0.5807,0.0082853,0,0.58077,-0.48382,-0.76173,-0.44797,-89.027,-0.56451,0.29746,-0.0012858,0.84,0.28,0
0.096605,0.017769,0.12521,-0.76581,-0.46407,-0.43157,-0.0050733,0,0,-0.86903,-0.084505,0,-0.026381,0,0,0.58976,0.010799,0,0.58988,-0.46398,-0.76589,-0.43157,-89.037,-0.55381,0.31936,-0.0016148,0.86,0.28,0
0.078688,0.017353,0.10142,-0.77009,-0.44509,-0.41526,-0.004979,0,0,-0.92254,-0.077557,0,-0.025891,0,0,0.60025,0.012653,0,0.60041,-0.44502,-0.77016,-0.41526,-89.123,-0.54348,0.341,-0.0019843,0.88,0.28,0
0.059703,0.017052,0.077187,-0.7742,-0.42692,-0.39893,-0.0044826,0,0,-0.97571,-0.072772,0,-0.023309,0,0,0.61155,0.013382,0,0.61173,-0.42686,-0.77426,-0.39893,-89.261,-0.53335,0.36217,-0.002391,0.9,0.28,0
0.03966,0.016859,0.052494,-0.77682,-0.44639,-0.40633,-0.0035395,0,0,-0.73217,-0.069439,0,-0.014543,0,0,0.62536,0.018927,0,0.62574,-0.44636,-0.77685,-0.40633,-89.39,-0.54318,0.35248,-0.0021676,0.92,0.28,0
0.030416,0.01694,0.039826,-0.78176,-0.47854,-0.41792,-0.0025334,0,0,-0.47299,-0.078816,0,-0.0065867,0,0,0.64278,0.022107,0,0.64324,-0.47852,-0.78178,-0.41792,-89.521,-0.55941,0.33766,-0.0017645,0.94,0.28,0
0.02074,0.017037,0.026783,-0.7837,-0.4697,-0.4028,-0.0019562,0,0,-0.49517,-0.086964,0,-0.0050861,0,0,0.65905,0.016257,0,0.65928,-0.46969,-0.78371,-0.4028,-89.643,-0.55207,0.35226,-0.001975,0.96,0.28,0
0.010609,0.017101,0.013464,-0.78455,-0.45626,-0.38571,-0.001234,0,0,-0.51849,-0.091723,0,-0.0032084,0,0,0.66957,0.0085654,0,0.66963,-0.45626,-0.78455,-0.38571,-89.785,-0.54217,0.36867,-0.0022591,0.98,0.28,0
0,0.017121,0,-0.76784,-0.43145,-0.35979,0.00037946,0,0,-0.53048,-0.093157,0,0.00098659,0,0,0.6732,-5.421e-18,0,0.67319,-0.43145,-0.76785,-0.35979,89.935,-0.51969,0.37737,-0.0024279,1,0.28,0
0,0.01613,1,-0.92797,-1.8826,-1.8432,-0.00072078,0,0,1.1898,-0.051252,0,-0.001874,0,0,0.65837,-1.4859e-15,0,0.65837,-0.92797,-1.8826,-1.8432,-0.043261,-1.5512,0.93554,0.041802,0,0.3,0
0.023795,0.016092,0.98683,-0.90972,-1.8581,-1.8172,-0.0018701,0,0,1.1797,-0.05316,0,-0.0048622,0,0,0.65663,0.00084367,0,0.65663,-0.90972,-1.8581,-1.8172,-0.11298,-1.5283,0.92857,0.040853,0.02,0.3,0
0.047187,0.015985,0.97374,-0.90497,-1.8434,-1.7982,-0.0034139,0,0,1.1613,-0.058734,0,-0.0088761,0,0,0.65157,0.0014546,0,0.65158,-0.90495,-1.8435,-1.7982,-0.20842,-1.5155,0.91673,0.039245,0.04,0.3,0
0.070246,0.015826,0.96077,-0.89797,-1.8313,-1.7795,-0.0043064,0,0,1.146,-0.067247,0,-0.011197,0,0,0.64358,0.001584,0,0.6436,-0.89795,-1.8313,-1.7795,-0.26437,-1.5029,0.90857,0.0381,0.06,0.3,0
0.093029,0.015641,0.94799,-0.88936,-1.8206,-1.761,-0.0043182,0,0,1.1331,-0.077537,0,-0.011227,0,0,0.63336,0.00098127,0,0.63339,-0.88934,-1.8207,-1.761,-0.26566,-1.4903,0.90296,0.037256,0.08,0.3,0
0.11557,0.01546,0.93544,-0.86721,-1.4467,-1.3958,-0.0035905,0,0,0.81066,-0.088326,0,-0.013856,0,0,0.62335,-0.00041657,0,0.62336,-0.86717,-1.4467,-1.3958,-0.55795,-1.2366,0.55608,0.018757,0.1,0.3,0
0.12546,0.01511,0.91068,-0.84722,-1.0811,-1.0338,-0.0024956,0,0,0.48519,-0.12284,0,-0.012977,0,0,0.61596,-0.0025838,0,0.61597,-0.84719,-1.0811,-1.0338,-0.61133,-0.98737,0.21422,0.00042321,0.12,0.3,0
0.13498,0.014801,0.88616,-0.83865,-1.0763,-1.0176,-0.00077097,0,0,0.46521,-0.15279,0,-0.0040091,0,0,0.61043,-0.0053883,0,0.61046,-0.83865,-1.0763,-1.0176,-0.18584,-0.97752,0.21444,0.00038114,0.14,0.3,0
0.14406,0.014583,0.86185,-0.83149,-1.0687,-1.001,0.0015344,0,0,0.44071,-0.17615,0,0.0079789,0,0,0.60579,-0.0086111,0,0.60585,-0.83148,-1.0688,-1.001,0.37053,-0.96707,0.21169,0.00032424,0.16,0.3,0
0.15261,0.014486,0.83769,-0.82605,-1.058,-0.98406,0.0041683,0,0,0.4108,-0.19217,0,0.021675,0,0,0.60247,-0.012135,0,0.60259,-0.82598,-1.058,-0.98406,1.0294,-0.95603,0.20532,0.00025783,0.18,0.3,0
0.1605,0.014526,0.81365,-0.82245,-1.0441,-0.96679,0.0069897,0,0,0.37527,-0.20099,0,0.036346,0,0,0.60075,-0.015835,0,0.60095,-0.82223,-1.0443,-0.96679,1.8045,-0.94444,0.19522,0.00018908,0.2,0.3,0
0.16762,0.014714,0.78964,-0.82063,-1.0273,-0.9492,0.0099663,0,0,0.33428,-0.2031,0,0.051825,0,0,0.6008,-0.019599,0,0.60112,-0.82015,-1.0278,-0.9492,2.7542,-0.93239,0.18159,0.00012487,0.22,0.3,0
0.17387,0.015059,0.76558,-0.8205,-1.0078,-0.9313,0.013129,0,0,0.28808,-0.19904,0,0.068269,0,0,0.60266,-0.023323,0,0.60311,-0.81958,-1.0088,-0.9313,3.9889,-0.91988,0.16473,7.0563e-05,0.24,0.3,0
0.17914,0.015574,0.74142,-0.82193,-0.98579,-0.91303,0.016508,0,0,0.23685,-0.18919,0,0.085839,0,0,0.60626,-0.0269,0,0.60686,-0.82029,-0.98744,-0.91303,5.6958,-0.90692,0.14505,2.9555e-05,0.26,0.3,0
0.18334,0.016271,0.71708,-0.82481,-0.9612,-0.89434,0.02007,0,0,0.18078,-0.17381,0,0.10436,0,0,0.61137,-0.030207,0,0.61212,-0.82192,-0.96409,-0.89434,8.2002,-0.89345,0.12313,3.1291e-06,0.28,0.3,0
0.18637,0.017155,0.69251,-0.82893,-0.93413,-0.87517,0.023673,0,0,0.12024,-0.15328,0,0.1231,0,0,0.61763,-0.033107,0,0.61853,-0.82385,-0.93921,-0.87517,12.115,-0.87941,0.10011,-9.7594e-06,0.3,0.3,0
0.18815,0.01822,0.66767,-0.8339,-0.90484,-0.85546,0.027042,0,0,0.056065,-0.1284,0,0.14062,0,0,0.62452,-0.035474,0,0.62553,-0.82476,-0.91398,-0.85546,18.659,-0.86473,0.078503,-1.2656e-05,0.32,0.3,0
0.18862,0.019436,0.64255,-0.84657,-1.1343,-1.0762,0.030456,0,0,0.3043,-0.10078,0,0.11735,0,0,0.63302,-0.055842,0,0.63576,-0.83864,-1.1422,-1.0762,14.434,-1.019,0.28192,0.002872,0.34,0.3,0
0.20032,0.019239,0.62979,-0.85952,-1.3674,-1.2979,0.035098,0,0,0.56986,-0.090407,0,0.091254,0,0,0.64387,-0.075288,0,0.64829,-0.85711,-1.3698,-1.2979,3.9345,-1.1749,0.4808,0.00528,0.36,0.3,0
0.21141,0.019186,0.6168,-0.86261,-1.3406,-1.2777,0.039172,0,0,0.53968,-0.081662,0,0.10185,0,0,0.65408,-0.07501,0,0.65838,-0.85942,-1.3438,-1.2777,4.6544,-1.1603,0.45494,0.0044946,0.38,0.3,0
0.22191,0.019232,0.60363,-0.86354,-1.3146,-1.2571,0.041735,0,0,0.51158,-0.07478,0,0.10851,0,0,0.66059,-0.073863,0,0.66471,-0.85972,-1.3184,-1.2571,5.2422,-1.1451,0.43132,0.0038415,0.4,0.3,0
0.23187,0.019318,0.59037,-0.86195,-1.2899,-1.2359,0.042591,0,0,0.48616,-0.070151,0,0.11074,0,0,0.66232,-0.072143,0,0.66624,-0.85776,-1.2941,-1.2359,5.6289,-1.1293,0.41035,0.0033098,0.42,0.3,0
0.24136,0.019378,0.57713,-0.85772,-1.2666,-1.2144,0.041663,0,0,0.4637,-0.067775,0,0.10832,0,0,0.65862,-0.07012,0,0.66235,-0.85352,-1.2708,-1.2144,5.76,-1.1129,0.39211,0.0028821,0.44,0.3,0
0.25042,0.019345,0.56403,-0.85105,-1.2441,-1.1926,0.038961,0,0,0.44398,-0.066995,0,0.1013,0,0,0.64945,-0.068002,0,0.65303,-0.84723,-1.2479,-1.1926,5.6066,-1.0959,0.3761,0.0025339,0.46,0.3,0
0.25912,0.019154,0.55116,-0.84233,-1.2218,-1.1704,0.034604,0,0,0.42649,-0.066828,0,0.089971,0,0,0.63553,-0.065914,0,0.63899,-0.8392,-1.2249,-1.1704,5.168,-1.0782,0.36156,0.0022425,0.48,0.3,0
0.26748,0.018745,0.53861,-0.82363,-0.98513,-0.94658,0.029777,0,0,0.11057,-0.066815,0,0.11402,0,0,0.6206,-0.04793,0,0.62269,-0.79095,-1.0178,-0.94658,35.306,-0.91845,0.21856,0.0010413,0.5,0.3,0
0.26354,0.01963,0.51406,-0.80858,-0.76514,-0.72915,0.026115,0,0,-0.20653,-0.093583,0,0.1358,0,0,0.60866,-0.030003,0,0.60942,-0.75289,-0.82083,-0.72915,64.876,-0.76762,0.082414,-2.0906e-05,0.52,0.3,0
0.25922,0.020316,0.48991,-0.79842,-0.7558,-0.71122,0.022992,0,0,-0.22672,-0.1159,0,0.11956,0,0,0.59868,-0.028054,0,0.59936,-0.74576,-0.80846,-0.71122,66.414,-0.75515,0.085379,-1.5242e-05,0.54,0.3,0
0.25447,0.020792,0.46616,-0.7892,-0.7442,-0.6931,0.019872,0,0,-0.24985,-0.13286,0,0.10333,0,0,0.58925,-0.026074,0,0.58984,-0.73668,-0.79672,-0.6931,69.274,-0.74217,0.090109,-1.0179e-05,0.56,0.3,0
0.24923,0.021066,0.44277,-0.78115,-0.73062,-0.67492,0.016952,0,0,-0.2762,-0.14482,0,0.088152,0,0,0.58097,-0.024046,0,0.58148,-0.72546,-0.78631,-0.67492,73.07,-0.72889,0.096606,-7.3866e-06,0.58,0.3,0
0.24342,0.021162,0.41969,-0.7743,-0.71546,-0.65677,0.014314,0,0,-0.30557,-0.15259,0,0.074435,0,0,0.57411,-0.021968,0,0.57454,-0.71216,-0.77759,-0.65677,77.027,-0.71551,0.10476,-8.4642e-06,0.6,0.3,0
0.237,0.021103,0.39685,-0.76856,-0.69909,-0.63872,0.011967,0,0,-0.33759,-0.15696,0,0.062226,0,0,0.5687,-0.019852,0,0.56905,-0.69708,-0.77056,-0.63872,80.496,-0.70212,0.11443,-1.5159e-05,0.62,0.3,0
0.22992,0.020916,0.37419,-0.76384,-0.68176,-0.62078,0.0098861,0,0,-0.37197,-0.15856,0,0.051408,0,0,0.56465,-0.017717,0,0.56493,-0.68059,-0.76502,-0.62078,83.228,-0.6888,0.12552,-2.9498e-05,0.64,0.3,0
0.22212,0.020625,0.35167,-0.76007,-0.66367,-0.60296,0.008044,0,0,-0.40849,-0.15786,0,0.041829,0,0,0.5618,-0.015582,0,0.56202,-0.66301,-0.76074,-0.60296,85.263,-0.67557,0.13793,-5.3859e-05,0.66,0.3,0
0.21358,0.020253,0.32925,-0.75719,-0.64495,-0.58527,0.0064153,0,0,-0.44699,-0.15519,0,0.033359,0,0,0.56002,-0.013467,0,0.56018,-0.64459,-0.75755,-0.58527,86.739,-0.66247,0.1516,-9.1011e-05,0.68,0.3,0
0.20424,0.019818,0.30687,-0.75516,-0.6257,-0.56769,0.0049816,0,0,-0.48741,-0.15081,0,0.025904,0,0,0.5592,-0.011391,0,0.55932,-0.6255,-0.75535,-0.56769,87.8,-0.64951,0.16646,-0.00014416,0.7,0.3,0
0.19408,0.01934,0.28451,-0.75397,-0.60599,-0.55024,0.003731,0,0,-0.5297,-0.14493,0,0.019401,0,0,0.5593,-0.0093724,0,0.55937,-0.60589,-0.75407,-0.55024,88.557,-0.63673,0.18248,-0.00021701,0.72,0.3,0
0.18306,0.018836,0.26213,-0.75364,-0.5859,-0.53292,0.0026571,0,0,-0.57385,-0.13773,0,0.013817,0,0,0.56031,-0.0074319,0,0.56036,-0.58585,-0.75368,-0.53292,89.093,-0.62415,0.19962,-0.00031378,0.74,0.3,0
0.17113,0.018322,0.23969,-0.75416,-0.5655,-0.51574,0.0017574,0,0,-0.61989,-0.12938,0,0.0091386,0,0,0.56229,-0.0055922,0,0.56232,-0.56549,-0.75418,-0.51574,89.466,-0.6118,0.21787,-0.00043921,0.76,0.3,0
0.15826,0.017813,0.21715,-0.75555,-0.5449,-0.49871,0.0010313,0,0,-0.66779,-0.12011,0,0.0053626,0,0,0.56535,-0.0038793,0,0.56537,-0.5449,-0.75555,-0.49871,89.719,-0.59972,0.23715,-0.00059833,0.78,0.3,0
0.14442,0.017323,0.19446,-0.75777,-0.52423,-0.48183,0.00047732,0,0,-0.71744,-0.11025,0,0.0024821,0,0,0.56964,-0.0023236,0,0.56965,-0.52423,-0.75777,-0.48183,89.883,-0.58794,0.25737,-0.00079606,0.8,0.3,0
0.12956,0.016866,0.17157,-0.76071,-0.50367,-0.4651,9.1076e-05,0,0,-0.76858,-0.10028,0,0.00047359,0,0,0.57531,-0.00095944,0,0.57532,-0.50367,-0.76071,-0.4651,89.98,-0.57649,0.27833,-0.0010361,0.82,0.3,0
0.11367,0.016454,0.14843,-0.76421,-0.48349,-0.44853,-0.00013712,0,0,-0.82078,-0.090899,0,-0.00071305,0,0,0.58249,0.00017618,0,0.58251,-0.48349,-0.76421,-0.44853,-89.972,-0.56541,0.29974,-0.0013199,0.84,0.3,0
0.096732,0.016097,0.12497,-0.76802,-0.46396,-0.43208,-0.000222,0,0,-0.87343,-0.082892,0,-0.0011544,0,0,0.59116,0.0010476,0,0.59118,-0.46396,-0.76802,-0.43208,-89.958,-0.55469,0.32118,-0.0016453,0.86,0.3,0
0.078736,0.015805,0.10114,-0.77186,-0.44528,-0.41571,-0.00018092,0,0,-0.92598,-0.076886,0,-0.00094078,0,0,0.60105,0.0016268,0,0.60108,-0.44528,-0.77186,-0.41571,-89.968,-0.54429,0.34232,-0.0020085,0.88,0.3,0
0.059693,0.015585,0.07689,-0.77545,-0.42733,-0.39928,-2.9866e-05,0,0,-0.97804,-0.072938,0,-0.0001553,0,0,0.61158,0.0019009,0,0.61161,-0.42733,-0.77545,-0.39928,-89.995,-0.53402,0.36296,-0.0024064,0.9,0.3,0
0.039614,0.015444,0.052214,-0.77762,-0.44731,-0.40664,0.00013929,0,0,-0.73326,-0.07049,0,0.00011335,0,0,0.62431,0.0028204,0,0.62437,-0.44731,-0.77762,-0.40664,-0.029364,-0.54386,0.35269,-0.0021686,0.92,0.3,0
0.030362,0.015347,0.039579,-0.78167,-0.47877,-0.41771,0.00014445,0,0,-0.47314,-0.079374,0,0.00037557,0,0,0.64032,0.0033527,0,0.64039,-0.47877,-0.78167,-0.41771,89.973,-0.55938,0.3376,-0.0017602,0.94,0.3,0
0.020688,0.015278,0.026601,-0.78293,-0.46988,-0.40244,9.4067e-05,0,0,-0.49463,-0.087668,0,0.00024458,0,0,0.6553,0.0025046,0,0.65533,-0.46988,-0.78293,-0.40244,89.983,-0.55175,0.35165,-0.0019594,0.96,0.3,0
0.010577,0.015237,0.013368,-0.78327,-0.4569,-0.38542,4.2311e-05,0,0,-0.51721,-0.092925,0,0.00011001,0,0,0.66502,0.0013364,0,0.66502,-0.4569,-0.78327,-0.38542,89.993,-0.54187,0.36737,-0.0022249,0.98,0.3,0
0,0.015223,0,-0.76648,-0.43245,-0.35968,-0.00026883,0,0,-0.52884,-0.094601,0,-0.00069897,0,0,0.66838,-1.6371e-17,0,0.66838,-0.43245,-0.76648,-0.35968,-89.954,-0.51954,0.37574,-0.0023837,1,0.3,0
0,0.015125,1,-0.92997,-1.879,-1.8427,-0.0014926,0,0,1.1865,-0.047184,0,-0.0038808,0,0,0.66099,1.4658e-16,0,0.66099,-0.92997,-1.879,-1.8427,-0.090116,-1.5505,0.9314,0.041286,0,0.32,0
0.023731,0.015048,0.98678,-0.91149,-1.8546,-1.8166,-0.0049369,0,0,1.1766,-0.049379,0,-0.012836,0,0,0.65907,0.0045755,0,0.65909,-0.91147,-1.8546,-1.8166,-0.29992,-1.5276,0.92473,0.040382,0.02,0.32,0
0.047066,0.014823,0.97364,-0.90626,-1.8407,-1.7977,-0.0093095,0,0,1.1589,-0.055844,0,-0.024205,0,0,0.65344,0.0086778,0,0.65351,-0.90617,-1.8408,-1.7977,-0.57076,-1.5149,0.91384,0.038902,0.04,0.32,0
0.070086,0.014484,0.96064,-0.89853,-1.8297,-1.7791,-0.01243,0,0,1.1448,-0.065815,0,-0.032319,0,0,0.6445,0.011763,0,0.64463,-0.89836,-1.8299,-1.7791,-0.76462,-1.5025,0.90723,0.037946,0.06,0.32,0
0.092857,0.014082,0.94786,-0.88904,-1.8207,-1.7608,-0.013801,0,0,1.1333,-0.077884,0,-0.035884,0,0,0.63297,0.013236,0,0.63314,-0.88883,-1.8209,-1.7608,-0.84853,-1.4902,0.9035,0.037315,0.08,0.32,0
0.11542,0.013675,0.93532,-0.8659,-1.4477,-1.3956,-0.013465,0,0,0.81311,-0.090294,0,-0.052137,0,0,0.6216,0.0094429,0,0.62171,-0.86542,-1.4481,-1.3956,-2.0803,-1.2364,0.55855,0.01886,0.1,0.32,0
0.12538,0.012613,0.91066,-0.84524,-1.0832,-1.0339,-0.011712,0,0,0.49041,-0.12824,0,-0.060903,0,0,0.61321,0.0038827,0,0.61323,-0.84466,-1.0838,-1.0339,-2.8112,-0.98743,0.21846,0.00044275,0.12,0.32,0
0.13503,0.01169,0.88627,-0.83615,-1.0795,-1.0178,-0.0085099,0,0,0.47236,-0.16035,0,-0.044251,0,0,0.60695,0.00032582,0,0.60696,-0.83585,-1.0798,-1.0178,-2.0003,-0.97783,0.21962,0.00040154,0.14,0.32,0
0.14428,0.010998,0.86211,-0.8287,-1.0724,-1.0014,-0.0043132,0,0,0.44895,-0.18459,0,-0.022429,0,0,0.60174,-0.0041767,0,0.60175,-0.82862,-1.0724,-1.0014,-1.0138,-0.96748,0.21719,0.00034251,0.16,0.32,0
0.15299,0.010579,0.83813,-0.82317,-1.0617,-0.98453,0.00028006,0,0,0.41953,-0.20069,0,0.0014563,0,0,0.59803,-0.0093425,0,0.5981,-0.82317,-1.0617,-0.98453,0.067266,-0.95648,0.21083,0.00027292,0.18,0.32,0
0.16106,0.010442,0.81426,-0.81957,-1.0479,-0.96737,0.0049509,0,0,0.38427,-0.20933,0,0.025745,0,0,0.59611,-0.014892,0,0.59629,-0.81946,-1.048,-0.96737,1.2417,-0.94494,0.20075,0.00020108,0.2,0.32,0
0.16836,0.010587,0.79044,-0.81775,-1.0312,-0.9499,0.0096337,0,0,0.34359,-0.21135,0,0.050095,0,0,0.59613,-0.02059,0,0.59648,-0.81732,-1.0316,-0.9499,2.5791,-0.93295,0.18733,0.00013412,0.22,0.32,0
0.1748,0.01101,0.76657,-0.8176,-1.0119,-0.93214,0.014397,0,0,0.2978,-0.2074,0,0.074863,0,0,0.59812,-0.026236,0,0.5987,-0.81654,-1.013,-0.93214,4.2145,-0.92055,0.171,7.7245e-05,0.24,0.32,0
0.18027,0.011719,0.74259,-0.81903,-0.9901,-0.91404,0.019317,0,0,0.247,-0.19777,0,0.10045,0,0,0.60203,-0.031618,0,0.60286,-0.81688,-0.99225,-0.91404,6.3632,-0.90772,0.15217,3.3605e-05,0.26,0.32,0
0.18468,0.012721,0.71841,-0.822,-0.96567,-0.89551,0.024365,0,0,0.19112,-0.18243,0,0.1267,0,0,0.60767,-0.03647,0,0.60877,-0.81798,-0.96969,-0.89551,9.3675,-0.89439,0.1314,4.4449e-06,0.28,0.32,0
0.18792,0.014019,0.69398,-0.82638,-0.93848,-0.87645,0.029291,0,0,0.13018,-0.16129,0,0.15231,0,0,0.61466,-0.040468,0,0.61601,-0.81919,-0.94567,-0.87645,13.795,-0.88043,0.1097,-1.1051e-05,0.3,0.32,0
0.18989,0.015592,0.66924,-0.83185,-0.90853,-0.85674,0.033585,0,0,0.064691,-0.13467,0,0.17464,0,0,0.62246,-0.043283,0,0.62398,-0.81922,-0.92116,-0.85674,20.609,-0.86571,0.089302,-1.6036e-05,0.32,0.32,0
0.19051,0.017378,0.64418,-0.84526,-1.1382,-1.0782,0.037067,0,0,0.31051,-0.10403,0,0.14321,0,0,0.63222,-0.06701,0,0.63616,-0.83468,-1.1488,-1.0782,15.589,-1.0205,0.29065,0.0029682,0.34,0.32,0
0.20231,0.0174,0.63142,-0.85941,-1.3717,-1.3007,0.040721,0,0,0.57373,-0.092201,0,0.10588,0,0,0.64477,-0.088504,0,0.65086,-0.85619,-1.3749,-1.3007,4.5169,-1.1773,0.48588,0.0054318,0.36,0.32,0
0.21346,0.017538,0.61839,-0.86367,-1.3429,-1.2804,0.042999,0,0,0.54172,-0.081346,0,0.1118,0,0,0.65668,-0.084907,0,0.66217,-0.85984,-1.3468,-1.2804,5.0862,-1.1623,0.45736,0.0045665,0.38,0.32,0
0.22398,0.017739,0.60515,-0.86572,-1.3148,-1.2593,0.043031,0,0,0.51167,-0.072161,0,0.11188,0,0,0.66449,-0.079073,0,0.66918,-0.86163,-1.3189,-1.2593,5.424,-1.1466,0.43058,0.0038366,0.4,0.32,0
0.23392,0.017936,0.59181,-0.86502,-1.2881,-1.2377,0.040799,0,0,0.48455,-0.065476,0,0.10608,0,0,0.66701,-0.071676,0,0.67084,-0.86112,-1.292,-1.2377,5.4581,-1.1303,0.40648,0.0032432,0.42,0.32,0
0.24336,0.018062,0.57847,-0.86132,-1.2631,-1.2158,0.036751,0,0,0.46083,-0.061508,0,0.095553,0,0,0.66356,-0.063503,0,0.66659,-0.85798,-1.2665,-1.2158,5.1833,-1.1134,0.38565,0.0027751,0.44,0.32,0
0.25236,0.018063,0.56527,-0.85483,-1.2394,-1.1935,0.031434,0,0,0.44031,-0.059603,0,0.081727,0,0,0.65407,-0.055485,0,0.65644,-0.85228,-1.2419,-1.1935,4.6424,-1.0959,0.36784,0.0024078,0.46,0.32,0
0.26097,0.017891,0.55231,-0.846,-1.2159,-1.1709,0.025213,0,0,0.42235,-0.058544,0,0.065553,0,0,0.63933,-0.048684,0,0.64124,-0.84429,-1.2176,-1.1709,3.8813,-1.0776,0.3523,0.002113,0.48,0.32,0
0.26925,0.017493,0.53969,-0.82685,-0.98019,-0.94688,0.019235,0,0,0.10511,-0.057733,0,0.072985,0,0,0.62342,-0.03302,0,0.62444,-0.79564,-1.0114,-0.94688,38.587,-0.91797,0.2105,0.00098016,0.5,0.32,0
0.26518,0.017852,0.51505,-0.81158,-0.76246,-0.72974,0.015656,0,0,-0.21279,-0.085076,0,0.081413,0,0,0.61075,-0.01928,0,0.61108,-0.75789,-0.81615,-0.72974,73.742,-0.76792,0.07633,-1.2809e-05,0.52,0.32,0
0.26074,0.018092,0.49083,-0.80106,-0.75327,-0.71172,0.01348,0,0,-0.23229,-0.10804,0,0.070094,0,0,0.60031,-0.017709,0,0.6006,-0.74973,-0.8046,-0.71172,75.286,-0.75535,0.08088,-8.3707e-06,0.54,0.32,0
0.25588,0.018224,0.46703,-0.79154,-0.74188,-0.69354,0.011643,0,0,-0.2548,-0.12568,0,0.060544,0,0,0.59062,-0.016912,0,0.59088,-0.73928,-0.79413,-0.69354,77.439,-0.74232,0.087236,-5.3187e-06,0.56,0.32,0
0.25055,0.018253,0.44358,-0.78327,-0.72851,-0.67533,0.010027,0,0,-0.28065,-0.13828,0,0.052139,0,0,0.58227,-0.016433,0,0.58251,-0.72673,-0.78505,-0.67533,79.943,-0.72904,0.095084,-4.8011e-06,0.58,0.32,0
0.24466,0.018185,0.42045,-0.77628,-0.71358,-0.65718,0.0085953,0,0,-0.30966,-0.14664,0,0.044696,0,0,0.57546,-0.01594,0,0.57568,-0.71243,-0.77744,-0.65718,82.334,-0.71568,0.10426,-8.1558e-06,0.6,0.32,0
0.23816,0.018033,0.39755,-0.77047,-0.69742,-0.63914,0.0073302,0,0,-0.34146,-0.15153,0,0.038117,0,0,0.57015,-0.015274,0,0.57036,-0.69669,-0.7712,-0.63914,84.326,-0.70234,0.11468,-1.7051e-05,0.62,0.32,0
0.231,0.017808,0.37483,-0.76572,-0.68029,-0.62122,0.0062267,0,0,-0.3757,-0.15359,0,0.032379,0,0,0.56619,-0.014403,0,0.56637,-0.67984,-0.76617,-0.62122,85.853,-0.68908,0.12629,-3.3498e-05,0.64,0.32,0
0.22313,0.017526,0.35225,-0.76192,-0.66239,-0.60342,0.0052829,0,0,-0.41211,-0.15332,0,0.027471,0,0,0.5634,-0.013362,0,0.56356,-0.66211,-0.7622,-0.60342,86.97,-0.67591,0.13906,-5.9863e-05,0.66,0.32,0
0.21452,0.017202,0.32976,-0.75901,-0.64384,-0.58574,0.0045017,0,0,-0.45052,-0.15108,0,0.023409,0,0,0.56164,-0.012212,0,0.56178,-0.64367,-0.75919,-0.58574,87.765,-0.66287,0.15295,-9.8883e-05,0.68,0.32,0
0.20511,0.016851,0.30732,-0.75694,-0.62477,-0.56817,0.0038903,0,0,-0.4908,-0.14714,0,0.02023,0,0,0.5608,-0.011022,0,0.56091,-0.62465,-0.75705,-0.56817,88.316,-0.64996,0.16792,-0.0001537,0.7,0.32,0
0.19488,0.016486,0.2849,-0.75568,-0.60524,-0.55072,0.0034597,0,0,-0.53289,-0.14173,0,0.01799,0,0,0.56083,-0.0098633,0,0.56091,-0.60516,-0.75576,-0.55072,88.683,-0.63721,0.18396,-0.00022791,0.72,0.32,0
0.1838,0.016122,0.26245,-0.75525,-0.58533,-0.5334,0.0032207,0,0,-0.5768,-0.13502,0,0.016747,0,0,0.56172,-0.0088106,0,0.56179,-0.58527,-0.75531,-0.5334,88.915,-0.62466,0.20106,-0.00032562,0.74,0.32,0
0.17181,0.01577,0.23996,-0.75565,-0.56513,-0.51621,0.0031787,0,0,-0.62253,-0.12718,0,0.016529,0,0,0.56354,-0.0079399,0,0.56359,-0.56508,-0.7557,-0.51621,89.044,-0.61233,0.21918,-0.0004515,0.76,0.32,0
0.15889,0.015442,0.21737,-0.7569,-0.54472,-0.49917,0.0033246,0,0,-0.6701,-0.11842,0,0.017288,0,0,0.56638,-0.0073301,0,0.56643,-0.54466,-0.75695,-0.49917,89.103,-0.60026,0.23831,-0.00061064,0.78,0.32,0
0.14501,0.015145,0.19465,-0.759,-0.52421,-0.48229,0.0036225,0,0,-0.71946,-0.10899,0,0.018837,0,0,0.5704,-0.0070561,0,0.57045,-0.52415,-0.75906,-0.48229,89.116,-0.5885,0.25839,-0.00080824,0.8,0.32,0
0.13012,0.014882,0.17174,-0.76189,-0.50377,-0.46557,0.0039976,0,0,-0.77045,-0.099315,0,0.020788,0,0,0.57579,-0.0071712,0,0.57584,-0.5037,-0.76196,-0.46557,89.113,-0.57708,0.27928,-0.0010488,0.82,0.32,0
0.11419,0.014654,0.14858,-0.76543,-0.48362,-0.44901,0.0043393,0,0,-0.82271,-0.089981,0,0.022565,0,0,0.58271,-0.0076666,0,0.58277,-0.48355,-0.7655,-0.44901,89.118,-0.56602,0.30071,-0.0013347,0.84,0.32,0
0.097208,0.014453,0.12512,-0.76939,-0.46406,-0.4326,0.0045332,0,0,-0.87567,-0.081797,0,0.023573,0,0,0.59121,-0.0084064,0,0.59129,-0.46399,-0.76946,-0.4326,89.15,-0.55535,0.32232,-0.0016649,0.86,0.32,0
0.079163,0.014278,0.10129,-0.7735,-0.44532,-0.41629,0.0045368,0,0,-0.92874,-0.075476,0,0.023591,0,0,0.6011,-0.0090861,0,0.6012,-0.44526,-0.77356,-0.41629,89.208,-0.54504,0.3437,-0.0020355,0.88,0.32,0
0.060058,0.014134,0.077034,-0.77747,-0.42735,-0.39996,0.0043603,0,0,-0.98152,-0.071202,0,0.022673,0,0,0.61181,-0.0092754,0,0.61191,-0.42729,-0.77753,-0.39996,89.287,-0.53493,0.36467,-0.0024435,0.9,0.32,0
0.039902,0.01404,0.052344,-0.78,-0.44665,-0.40725,0.0037807,0,0,-0.73653,-0.068287,0,0.014611,0,0,0.62493,-0.012885,0,0.62513,-0.44661,-0.78005,-0.40725,89.344,-0.54464,0.35501,-0.0022187,0.92,0.32,0
0.030597,0.013765,0.039692,-0.7849,-0.4785,-0.41871,0.0028195,0,0,-0.47605,-0.07772,0,0.0073308,0,0,0.64153,-0.014945,0,0.64177,-0.47847,-0.78493,-0.41871,89.473,-0.5607,0.3403,-0.0018153,0.94,0.32,0
0.02086,0.013531,0.026683,-0.78685,-0.46961,-0.40362,0.0021648,0,0,-0.49819,-0.08579,0,0.0056285,0,0,0.65703,-0.010917,0,0.65716,-0.4696,-0.78686,-0.40362,89.609,-0.55336,0.35488,-0.0020306,0.96,0.32,0
0.010669,0.013385,0.013411,-0.78772,-0.45613,-0.38657,0.0013368,0,0,-0.5215,-0.090438,0,0.0034757,0,0,0.66707,-0.0057191,0,0.66709,-0.45613,-0.78772,-0.38657,89.769,-0.54347,0.3713,-0.002321,0.98,0.32,0
0,0.013337,0,-0.7711,-0.43138,-0.36074,-0.00090936,0,0,-0.53346,-0.091824,0,-0.0023643,0,0,0.67053,1.301e-18,0,0.67052,-0.43137,-0.7711,-0.36074,-89.847,-0.52107,0.38,-0.0024931,1,0.32,0
0,0.014242,1,-0.93509,-1.8721,-1.8422,-0.0024095,0,0,1.1792,-0.038929,0,-0.0062647,0,0,0.66752,-4.6751e-16,0,0.66751,-0.93508,-1.8721,-1.8422,-0.14733,-1.5498,0.92242,0.040166,0,0.34,0
0.023584,0.014117,0.98665,-0.91618,-1.8478,-1.8158,-0.0083502,0,0,1.1696,-0.041541,0,-0.02171,0,0,0.66531,0.0087437,0,0.66536,-0.91611,-1.8479,-1.8158,-0.51349,-1.5266,0.91617,0.039333,0.02,0.34,0
0.046782,0.013752,0.97339,-0.91014,-1.8349,-1.7969,-0.015992,0,0,1.1528,-0.049376,0,-0.041578,0,0,0.65875,0.016884,0,0.65898,-0.90987,-1.8352,-1.7969,-0.99044,-1.514,0.90676,0.038062,0.04,0.34,0
0.069695,0.013194,0.9603,-0.90112,-1.826,-1.7785,-0.021815,0,0,1.1405,-0.061861,0,-0.056719,0,0,0.64814,0.023575,0,0.64859,-0.90061,-1.8265,-1.7785,-1.3504,-1.5019,0.90285,0.037436,0.06,0.34,0
0.092403,0.012526,0.94746,-0.89003,-1.8198,-1.7604,-0.024771,0,0,1.1315,-0.077223,0,-0.064404,0,0,0.63419,0.027708,0,0.63485,-0.88938,-1.8205,-1.7604,-1.525,-1.4901,0.90257,0.0372,0.08,0.34,0
0.11496,0.011848,0.93493,-0.86506,-1.4488,-1.3954,-0.024711,0,0,0.81501,-0.092678,0,-0.095587,0,0,0.62029,0.021179,0,0.62072,-0.86346,-1.4504,-1.3954,-3.7456,-1.2364,0.56178,0.01894,0.1,0.34,0
0.125,0.0099801,0.91037,-0.84316,-1.0869,-1.0342,-0.0219,0,0,0.49671,-0.13699,0,-0.11388,0,0,0.60999,0.011557,0,0.61011,-0.8412,-1.0888,-1.0342,-5.0939,-0.98808,0.22534,0.00047321,0.12,0.34,0
0.13482,0.008387,0.88613,-0.83312,-1.0849,-1.0185,-0.016741,0,0,0.48187,-0.17262,0,-0.087055,0,0,0.60237,0.0070139,0,0.60242,-0.83201,-1.086,-1.0185,-3.7883,-0.97881,0.22782,0.0004324,0.14,0.34,0
0.14428,0.0071995,0.86218,-0.8252,-1.0782,-1.0021,-0.010276,0,0,0.45996,-0.19783,0,-0.053435,0,0,0.59612,0.00091292,0,0.59612,-0.82479,-1.0786,-1.0021,-2.3221,-0.9685,0.22553,0.00036875,0.16,0.34,0
0.15322,0.0064583,0.83844,-0.81956,-1.0674,-0.98532,-0.0035579,0,0,0.43098,-0.21351,0,-0.018501,0,0,0.59175,-0.0061893,0,0.59178,-0.81951,-1.0675,-0.98532,-0.82217,-0.95744,0.21879,0.00029343,0.18,0.34,0
0.16152,0.0061532,0.81484,-0.81601,-1.0534,-0.96824,0.0029756,0,0,0.3958,-0.2214,0,0.015473,0,0,0.5895,-0.013815,0,0.58965,-0.81598,-1.0534,-0.96824,0.71806,-0.94588,0.20836,0.0002166,0.2,0.34,0
0.16905,0.0062602,0.79128,-0.81427,-1.0367,-0.95092,0.0093101,0,0,0.35529,-0.22291,0,0.048413,0,0,0.58945,-0.021629,0,0.58984,-0.81388,-1.037,-0.95092,2.3931,-0.93395,0.19493,0.00014566,0.22,0.34,0
0.17573,0.0067634,0.76768,-0.81416,-1.0175,-0.93335,0.015631,0,0,0.30988,-0.21885,0,0.08128,0,0,0.59163,-0.029391,0,0.59236,-0.81297,-1.0187,-0.93335,4.3698,-0.92168,0.17904,8.5358e-05,0.24,0.34,0
0.18145,0.0076634,0.74395,-0.81566,-0.99599,-0.91547,0.022128,0,0,0.2595,-0.20935,0,0.11507,0,0,0.59603,-0.036839,0,0.59716,-0.81299,-0.99867,-0.91547,6.8946,-0.90904,0.16109,3.8381e-05,0.26,0.34,0
0.18611,0.0089734,0.72,-0.81887,-0.9718,-0.8972,0.028832,0,0,0.20366,-0.19395,0,0.14993,0,0,0.60252,-0.043579,0,0.6041,-0.81362,-0.97705,-0.8972,10.33,-0.89596,0.14155,5.7622e-06,0.28,0.34,0
0.1896,0.010703,0.69575,-0.82385,-0.94439,-0.87835,0.035442,0,0,0.1417,-0.17172,0,0.1843,0,0,0.61082,-0.049044,0,0.6128,-0.8142,-0.95404,-0.87835,15.228,-0.88219,0.12125,-1.3034e-05,0.3,0.34,0
0.19178,0.012833,0.67114,-0.83041,-0.91329,-0.85868,0.041134,0,0,0.073507,-0.142,0,0.2139,0,0,0.62031,-0.052582,0,0.62256,-0.81346,-0.93024,-0.85868,22.392,-0.86746,0.10199,-2.0643e-05,0.32,0.34,0
0.19254,0.015274,0.64612,-0.84524,-1.1417,-1.0807,0.045175,0,0,0.31552,-0.10572,0,0.17465,0,0,0.63248,-0.080525,0,0.63815,-0.83109,-1.1558,-1.0807,16.917,-1.0225,0.2996,0.0030464,0.34,0.34,0
0.2044,0.015551,0.63333,-0.86187,-1.3747,-1.3043,0.048247,0,0,0.57518,-0.091557,0,0.12544,0,0,0.64831,-0.10458,0,0.65675,-0.85738,-1.3793,-1.3043,5.3277,-1.1803,0.48873,0.0055236,0.36,0.34,0
0.21554,0.015932,0.62019,-0.86845,-1.343,-1.2836,0.048811,0,0,0.53974,-0.077189,0,0.12691,0,0,0.66351,-0.09708,0,0.6706,-0.86348,-1.348,-1.2836,5.8121,-1.165,0.45574,0.0045366,0.38,0.34,0
0.22599,0.016346,0.60679,-0.87263,-1.3116,-1.2621,0.045933,0,0,0.50628,-0.064445,0,0.11943,0,0,0.67382,-0.085856,0,0.67926,-0.86788,-1.3164,-1.2621,5.9095,-1.1488,0.42398,0.0036986,0.4,0.34,0
0.23579,0.016699,0.59324,-0.8733,-1.2823,-1.2399,0.039935,0,0,0.4766,-0.055092,0,0.10383,0,0,0.67789,-0.072048,0,0.68168,-0.86944,-1.2862,-1.2399,5.5249,-1.1318,0.39563,0.0030345,0.42,0.34,0
0.24505,0.016918,0.57968,-0.86996,-1.2559,-1.2174,0.031875,0,0,0.45171,-0.049988,0,0.082875,0,0,0.67481,-0.056806,0,0.67718,-0.86735,-1.2585,-1.2174,4.69,-1.1144,0.37232,0.0025423,0.44,0.34,0
0.25386,0.016961,0.56625,-0.86279,-1.2319,-1.1946,0.023227,0,0,0.4314,-0.048379,0,0.06039,0,0,0.66427,-0.041746,0,0.6656,-0.86134,-1.2333,-1.1946,3.587,-1.0964,0.35423,0.0021913,0.46,0.34,0
0.26231,0.016812,0.5531,-0.8527,-1.2086,-1.1715,0.014699,0,0,0.41442,-0.048215,0,0.038217,0,0,0.64699,-0.029102,0,0.64772,-0.85209,-1.2092,-1.1715,2.3611,-1.0776,0.33981,0.001932,0.48,0.34,0
0.27044,0.016436,0.54037,-0.83149,-0.97444,-0.94705,0.0076067,0,0,0.097207,-0.047468,0,0.027771,0,0,0.62799,-0.015967,0,0.62829,-0.79941,-1.0065,-0.94705,42.995,-0.91766,0.20389,0.00089938,0.5,0.34,0
0.2662,0.016227,0.5156,-0.81506,-0.76082,-0.73056,0.0042465,0,0,-0.21969,-0.078657,0,0.022082,0,0,0.61296,-0.0072786,0,0.61304,-0.76049,-0.81539,-0.73056,85.551,-0.76881,0.074516,-1.0286e-05,0.52,0.34,0
0.26165,0.015994,0.49133,-0.80338,-0.7523,-0.71237,0.0033324,0,0,-0.23662,-0.10383,0,0.017328,0,0,0.60105,-0.0065859,0,0.60111,-0.75209,-0.80359,-0.71237,86.283,-0.75602,0.079221,-5.6571e-06,0.54,0.34,0
0.25673,0.015764,0.46752,-0.79305,-0.74108,-0.694,0.0030176,0,0,-0.25753,-0.12242,0,0.015692,0,0,0.59053,-0.0074895,0,0.59059,-0.74091,-0.79322,-0.694,86.688,-0.74271,0.085974,-3.0749e-06,0.56,0.34,0
0.25135,0.015535,0.44409,-0.78437,-0.7278,-0.6757,0.0029051,0,0,-0.28254,-0.13548,0,0.015106,0,0,0.58194,-0.0089039,0,0.58202,-0.72766,-0.78451,-0.6757,87.068,-0.72929,0.094272,-3.3525e-06,0.58,0.34,0
0.24543,0.015296,0.42096,-0.77716,-0.71289,-0.6575,0.002797,0,0,-0.31112,-0.14403,0,0.014545,0,0,0.57527,-0.010128,0,0.57536,-0.71277,-0.77728,-0.6575,87.513,-0.71585,0.10384,-7.6506e-06,0.6,0.34,0
0.23891,0.015042,0.39807,-0.77128,-0.69679,-0.63945,0.0026772,0,0,-0.34275,-0.14907,0,0.013921,0,0,0.57024,-0.010919,0,0.57035,-0.69669,-0.77138,-0.63945,87.944,-0.70251,0.11458,-1.7505e-05,0.62,0.34,0
0.23172,0.014773,0.37534,-0.76651,-0.67974,-0.62155,0.0025687,0,0,-0.3769,-0.15131,0,0.013357,0,0,0.56656,-0.011266,0,0.56668,-0.67967,-0.76658,-0.62155,88.306,-0.68927,0.12643,-3.4851e-05,0.64,0.34,0
0.22383,0.014493,0.35274,-0.7627,-0.66194,-0.60376,0.0025114,0,0,-0.41323,-0.15127,0,0.013059,0,0,0.564,-0.011253,0,0.56411,-0.66188,-0.76276,-0.60376,88.573,-0.67613,0.13935,-6.1964e-05,0.66,0.34,0
0.21519,0.014209,0.33022,-0.75974,-0.64353,-0.58609,0.0025452,0,0,-0.45148,-0.14933,0,0.013235,0,0,0.56236,-0.010996,0,0.56247,-0.64347,-0.75979,-0.58609,88.746,-0.66312,0.15329,-0.00010144,0.68,0.34,0
0.20577,0.013932,0.30775,-0.75756,-0.62461,-0.56853,0.002711,0,0,-0.49149,-0.14581,0,0.014097,0,0,0.56155,-0.010621,0,0.56165,-0.62455,-0.75762,-0.56853,88.832,-0.65023,0.16823,-0.00015623,0.7,0.34,0
0.19553,0.013671,0.2853,-0.75615,-0.60527,-0.55107,0.0030491,0,0,-0.53319,-0.14091,0,0.015855,0,0,0.56151,-0.01025,0,0.5616,-0.60521,-0.75621,-0.55107,88.843,-0.6375,0.18413,-0.00022968,0.72,0.34,0
0.18444,0.013435,0.26283,-0.75548,-0.58558,-0.53374,0.0035954,0,0,-0.57655,-0.1348,0,0.018696,0,0,0.56223,-0.010009,0,0.56232,-0.5855,-0.75556,-0.53374,88.788,-0.62493,0.201,-0.00032568,0.74,0.34,0
0.17247,0.013235,0.24032,-0.75561,-0.56561,-0.51653,0.0043749,0,0,-0.62162,-0.12762,0,0.02275,0,0,0.56377,-0.010027,0,0.56386,-0.56551,-0.75571,-0.51653,88.682,-0.61258,0.21884,-0.00044872,0.76,0.34,0
0.15958,0.013076,0.21773,-0.75658,-0.54543,-0.49947,0.0053889,0,0,-0.66849,-0.11949,0,0.028022,0,0,0.56624,-0.01044,0,0.56634,-0.54529,-0.75672,-0.49947,88.539,-0.60049,0.23768,-0.00060409,0.78,0.34,0
0.14573,0.012964,0.19502,-0.75846,-0.52511,-0.48258,0.0065939,0,0,-0.7173,-0.11056,0,0.034288,0,0,0.5698,-0.011383,0,0.56991,-0.52492,-0.75865,-0.48258,88.383,-0.58872,0.25752,-0.00079783,0.8,0.34,0
0.13089,0.012894,0.17215,-0.76132,-0.50474,-0.46589,0.0078772,0,0,-0.76811,-0.10101,0,0.040961,0,0,0.5747,-0.012962,0,0.57485,-0.5045,-0.76156,-0.46589,88.243,-0.57732,0.27838,-0.0010365,0.82,0.34,0
0.115,0.012855,0.14905,-0.76512,-0.48448,-0.4494,0.0090344,0,0,-0.82087,-0.091189,0,0.046979,0,0,0.58126,-0.015195,0,0.58147,-0.48418,-0.76541,-0.4494,88.158,-0.56633,0.30014,-0.0013259,0.84,0.34,0
0.09805,0.012826,0.12565,-0.76968,-0.46452,-0.43308,0.0098151,0,0,-0.87516,-0.081729,0,0.051039,0,0,0.58974,-0.017862,0,0.59003,-0.4642,-0.77,-0.43308,88.16,-0.55576,0.32248,-0.0016685,0.86,0.34,0
0.079999,0.012786,0.10187,-0.7748,-0.44536,-0.41698,0.010028,0,0,-0.93033,-0.073789,0,0.052146,0,0,0.60018,-0.020292,0,0.60055,-0.44506,-0.77511,-0.41698,88.258,-0.54571,0.34494,-0.002061,0.88,0.34,0
0.060837,0.012737,0.077632,-0.78012,-0.42707,-0.40097,0.0097738,0,0,-0.98577,-0.06786,0,0.050824,0,0,0.61208,-0.021429,0,0.61249,-0.4268,-0.78039,-0.40097,88.415,-0.53605,0.36718,-0.0025001,0.9,0.34,0
0.040568,0.012712,0.052901,-0.78399,-0.44465,-0.40827,0.0086741,0,0,-0.74182,-0.063056,0,0.033817,0,0,0.62723,-0.030321,0,0.62811,-0.44442,-0.78421,-0.40827,88.528,-0.54563,0.35945,-0.0023182,0.92,0.34,0
0.031165,0.012238,0.040177,-0.7918,-0.47813,-0.42116,0.0072661,0,0,-0.48184,-0.07407,0,0.018892,0,0,0.64659,-0.035188,0,0.64763,-0.47797,-0.79197,-0.42116,88.674,-0.5637,0.34592,-0.0019341,0.94,0.34,0
0.021294,0.011846,0.027037,-0.79597,-0.46871,-0.40644,0.006089,0,0,-0.50639,-0.080948,0,0.015831,0,0,0.66452,-0.025466,0,0.66504,-0.46859,-0.79608,-0.40644,88.934,-0.55704,0.36258,-0.0022076,0.96,0.34,0
0.010909,0.011619,0.013596,-0.79874,-0.45339,-0.38923,0.0038759,0,0,-0.53236,-0.0834,0,0.010077,0,0,0.67593,-0.013211,0,0.67605,-0.45334,-0.79878,-0.38923,89.357,-0.54712,0.38155,-0.0025835,0.98,0.34,0
0,0.01155,0,-0.78256,-0.42735,-0.36297,-0.0013351,0,0,-0.54546,-0.083692,0,-0.0034713,0,0,0.67982,1.2143e-17,0,0.67979,-0.42735,-0.78256,-0.36297,-89.785,-0.52429,0.39139,-0.0028007,1,0.34,0
0,0.013568,1,-0.94341,-1.8619,-1.8416,-0.0035015,0,0,1.1677,-0.026442,0,-0.0091038,0,0,0.67848,-1.0105e-15,0,0.67845,-0.9434,-1.862,-1.8416,-0.21841,-1.549,0.90856,0.038455,0,0.36,0
0.023353,0.013386,0.98643,-0.92392,-1.8374,-1.8148,-0.012042,0,0,1.1582,-0.029301,0,-0.031309,0,0,0.67596,0.013402,0,0.67607,-0.92376,-1.8375,-1.8148,-0.75517,-1.5254,0.90262,0.037688,0.02,0.36,0
0.046326,0.012848,0.97296,-0.91696,-1.8253,-1.7956,-0.023651,0,0,1.1423,-0.038524,0,-0.061493,0,0,0.66827,0.02641,0,0.6688,-0.91635,-1.8259,-1.7956,-1.4906,-1.5126,0.89479,0.036653,0.04,0.36,0
0.069044,0.01201,0.9597,-0.90612,-1.8191,-1.7773,-0.033103,0,0,1.1325,-0.054401,0,-0.086068,0,0,0.65533,0.037924,0,0.65646,-0.90492,-1.8203,-1.7773,-2.0738,-1.5008,0.89465,0.03649,0.06,0.36,0
0.091626,0.010993,0.94675,-0.89268,-1.8178,-1.7599,-0.038359,0,0,1.1274,-0.075265,0,-0.099734,0,0,0.63763,0.045998,0,0.63937,-0.89109,-1.8194,-1.7599,-2.3703,-1.4901,0.90002,0.036892,0.08,0.36,0
0.11414,0.0099676,0.93419,-0.86481,-1.4508,-1.3953,-0.038341,0,0,0.81653,-0.096143,0,-0.14799,0,0,0.61957,0.036253,0,0.6208,-0.86108,-1.4545,-1.3953,-5.6397,-1.237,0.56656,0.019015,0.1,0.36,0
0.12429,0.0071331,0.90974,-0.84091,-1.0931,-1.0351,-0.033724,0,0,0.50482,-0.15087,0,-0.17536,0,0,0.60611,0.021357,0,0.6065,-0.83648,-1.0975,-1.0351,-7.4867,-0.98969,0.2361,0.00051985,0.12,0.36,0
0.13433,0.0047858,0.88571,-0.82943,-1.0931,-1.0196,-0.025644,0,0,0.4945,-0.19112,0,-0.13335,0,0,0.59631,0.015293,0,0.59651,-0.82695,-1.0956,-1.0196,-5.5031,-0.98072,0.23986,0.00047637,0.14,0.36,0
0.14407,0.003085,0.86203,-0.82086,-1.0865,-1.0032,-0.016316,0,0,0.47415,-0.21652,0,-0.084844,0,0,0.58854,0.0069593,0,0.58857,-0.81986,-1.0875,-1.0032,-3.5017,-0.9702,0.23702,0.00040386,0.16,0.36,0
0.1533,0.0020381,0.83862,-0.81519,-1.0752,-0.98642,-0.0072504,0,0,0.44517,-0.23071,0,-0.037702,0,0,0.5833,-0.0025796,0,0.5833,-0.81499,-1.0754,-0.98642,-1.5964,-0.95892,0.22922,0.00031947,0.18,0.36,0
0.16187,0.0015862,0.81537,-0.81178,-1.0606,-0.96939,0.00112,0,0,0.40978,-0.23705,0,0.0058242,0,0,0.58067,-0.012582,0,0.58079,-0.81177,-1.0606,-0.96939,0.25795,-0.94724,0.218,0.00023571,0.2,0.36,0
0.16969,0.0016702,0.79217,-0.81015,-1.0436,-0.95222,0.0090188,0,0,0.36936,-0.23765,0,0.046898,0,0,0.58055,-0.022713,0,0.58098,-0.80981,-1.044,-0.95222,2.209,-0.93533,0.20436,0.00015966,0.22,0.36,0
0.17665,0.0022566,0.76892,-0.81009,-1.0246,-0.93488,0.016843,0,0,0.32446,-0.23337,0,0.087583,0,0,0.58291,-0.032813,0,0.58383,-0.80878,-1.026,-0.93488,4.4615,-0.9232,0.1889,9.5198e-05,0.24,0.36,0
0.18267,0.0033453,0.74554,-0.81168,-1.0036,-0.91734,0.024969,0,0,0.27472,-0.22419,0,0.12984,0,0,0.58784,-0.042691,0,0.58939,-0.80848,-1.0068,-0.91734,7.2934,-0.91087,0.17199,4.4105e-05,0.26,0.36,0
0.18764,0.0049634,0.7219,-0.81519,-0.97987,-0.89947,0.033605,0,0,0.21912,-0.20904,0,0.17475,0,0,0.59546,-0.051914,0,0.59773,-0.8086,-0.98646,-0.89947,11.101,-0.89817,0.15405,7.0818e-06,0.28,0.36,0
0.19143,0.0071504,0.6979,-0.82109,-0.95255,-0.88104,0.042471,0,0,0.15587,-0.18592,0,0.22085,0,0,0.60566,-0.059586,0,0.60861,-0.80856,-0.96508,-0.88104,16.434,-0.88489,0.13567,-1.6347e-05,0.3,0.36,0
0.19387,0.0099115,0.67344,-0.82939,-0.92,-0.86154,0.050481,0,0,0.083589,-0.15199,0,0.2625,0,0,0.61782,-0.064472,0,0.62121,-0.80686,-0.94252,-0.86154,24.047,-0.87031,0.11822,-2.7859e-05,0.32,0.36,0
0.19478,0.01315,0.64847,-0.84661,-1.1456,-1.084,0.055979,0,0,0.31989,-0.10668,0,0.21615,0,0,0.63391,-0.098171,0,0.64229,-0.82733,-1.1648,-1.084,18.452,-1.0254,0.31038,0.0031204,0.34,0.36,0
0.20667,0.013738,0.6356,-0.86734,-1.3771,-1.3089,0.059271,0,0,0.57406,-0.088569,0,0.1541,0,0,0.65506,-0.12559,0,0.66709,-0.86053,-1.3839,-1.3089,6.5462,-1.1844,0.49016,0.005575,0.36,0.36,0
0.21774,0.014451,0.62227,-0.87763,-1.3402,-1.2876,0.058007,0,0,0.533,-0.06838,0,0.15082,0,0,0.67541,-0.11297,0,0.68482,-0.87047,-1.3474,-1.2876,7.0393,-1.1685,0.45003,0.004404,0.38,0.36,0
0.22799,0.015161,0.60859,-0.88534,-1.3043,-1.2655,0.051483,0,0,0.49417,-0.050449,0,0.13386,0,0,0.68952,-0.095161,0,0.69603,-0.87911,-1.3105,-1.2655,6.9042,-1.1517,0.41074,0.0034152,0.4,0.36,0
0.2375,0.015732,0.59469,-0.88839,-1.2716,-1.2427,0.040469,0,0,0.46058,-0.037559,0,0.10522,0,0,0.69606,-0.073933,0,0.69992,-0.88416,-1.2758,-1.2427,5.9636,-1.1342,0.37617,0.0026626,0.42,0.36,0
0.24641,0.016063,0.58074,-0.88507,-1.243,-1.2192,0.026827,0,0,0.43432,-0.030982,0,0.06975,0,0,0.69386,-0.050372,0,0.69562,-0.88307,-1.245,-1.2192,4.2626,-1.1157,0.34973,0.0021565,0.44,0.36,0
0.25488,0.016128,0.56694,-0.87638,-1.2201,-1.1959,0.012737,0,0,0.41536,-0.031515,0,0.033117,0,0,0.68177,-0.025681,0,0.68224,-0.87591,-1.2206,-1.1959,2.1192,-1.0975,0.33303,0.0018617,0.46,0.36,0
0.26303,0.015962,0.55347,-0.86325,-1.1994,-1.1723,0.0011888,0,0,0.40172,-0.03527,0,0.0030908,0,0,0.65979,-0.0043393,0,0.65991,-0.86325,-1.1994,-1.1723,0.20262,-1.0783,0.32344,0.0016967,0.48,0.36,0
0.27095,0.015594,0.54055,-0.83755,-0.96813,-0.94711,-0.0071819,0,0,0.086867,-0.036437,0,-0.02924,0,0,0.6346,0.0063261,0,0.63477,-0.80129,-1.0044,-0.94711,-42.333,-0.9176,0.2002,0.00080526,0.5,0.36,0
0.2665,0.014706,0.51563,-0.81886,-0.76116,-0.73182,-0.0092152,0,0,-0.22629,-0.076281,0,-0.047919,0,0,0.61481,0.0076453,0,0.61491,-0.75972,-0.82029,-0.73182,-81.142,-0.77061,0.078341,-1.455e-05,0.52,0.36,0
0.26189,0.013939,0.49136,-0.80475,-0.7534,-0.71313,-0.008137,0,0,-0.23824,-0.1047,0,-0.042312,0,0,0.6001,0.0061413,0,0.60017,-0.75214,-0.80601,-0.71313,-81.209,-0.75709,0.080786,-7.3889e-06,0.54,0.36,0
0.25697,0.013328,0.46763,-0.79331,-0.74234,-0.69451,-0.0061597,0,0,-0.25688,-0.12437,0,-0.03203,0,0,0.58831,0.0021959,0,0.58833,-0.74161,-0.79404,-0.69451,-83.206,-0.74338,0.08624,-3.0532e-06,0.56,0.36,0
0.25162,0.012833,0.4443,-0.78399,-0.72863,-0.67594,-0.0043991,0,0,-0.28095,-0.13701,0,-0.022875,0,0,0.57963,-0.0017096,0,0.57964,-0.72828,-0.78434,-0.67594,-85.485,-0.72952,0.0939,-2.5159e-06,0.58,0.36,0
0.24573,0.012424,0.42125,-0.77671,-0.71348,-0.65768,-0.0029938,0,0,-0.30947,-0.14506,0,-0.015568,0,0,0.57344,-0.0048144,0,0.57346,-0.71334,-0.77685,-0.65768,-87.295,-0.71596,0.10328,-6.4502e-06,0.6,0.36,0
0.23924,0.01207,0.39842,-0.77088,-0.6972,-0.63963,-0.0019108,0,0,-0.34124,-0.14967,0,-0.0099364,0,0,0.56901,-0.007033,0,0.56906,-0.69715,-0.77093,-0.63963,-88.515,-0.70257,0.114,-1.617e-05,0.62,0.36,0
0.23208,0.011756,0.37573,-0.7662,-0.68008,-0.62175,-0.0010309,0,0,-0.37557,-0.15165,0,-0.0053605,0,0,0.56585,-0.0084949,0,0.56592,-0.68007,-0.76621,-0.62175,-89.314,-0.68934,0.12588,-3.342e-05,0.64,0.36,0
0.22422,0.011476,0.35315,-0.76244,-0.66228,-0.60399,-0.00025038,0,0,-0.41196,-0.15155,0,-0.001302,0,0,0.56367,-0.0093869,0,0.56375,-0.66228,-0.76244,-0.60399,-89.857,-0.67624,0.13881,-6.0266e-05,0.66,0.36,0
0.2156,0.011229,0.33064,-0.75945,-0.64394,-0.58634,0.00052499,0,0,-0.45009,-0.14976,0,0.0027299,0,0,0.56227,-0.0099001,0,0.56236,-0.64394,-0.75945,-0.58634,89.74,-0.66324,0.15269,-9.9041e-05,0.68,0.36,0
0.20621,0.011018,0.30817,-0.75714,-0.62515,-0.56877,0.0013794,0,0,-0.48976,-0.14658,0,0.0071729,0,0,0.56155,-0.010216,0,0.56164,-0.62514,-0.75716,-0.56877,89.401,-0.65036,0.16747,-0.00015235,0.7,0.36,0
0.19601,0.01085,0.28572,-0.75548,-0.606,-0.5513,0.0023903,0,0,-0.53085,-0.14222,0,0.01243,0,0,0.56144,-0.010508,0,0.56154,-0.60597,-0.75552,-0.5513,89.084,-0.6376,0.18311,-0.00022315,0.72,0.36,0
0.18498,0.01073,0.26326,-0.75445,-0.58657,-0.53393,0.0036286,0,0,-0.57336,-0.13684,0,0.018868,0,0,0.56195,-0.010949,0,0.56205,-0.58649,-0.75453,-0.53393,88.763,-0.62498,0.19958,-0.00031486,0.74,0.36,0
0.17308,0.010665,0.24076,-0.75412,-0.56689,-0.51668,0.0051546,0,0,-0.61734,-0.13053,0,0.026804,0,0,0.5631,-0.01172,0,0.56323,-0.56675,-0.75426,-0.51668,88.424,-0.61256,0.21692,-0.0004316,0.76,0.36,0
0.16029,0.010662,0.21821,-0.75457,-0.54702,-0.49958,0.0070079,0,0,-0.66297,-0.12334,0,0.036441,0,0,0.56502,-0.013016,0,0.56517,-0.54678,-0.75481,-0.49958,88.068,-0.60039,0.2352,-0.00057859,0.78,0.36,0
0.14656,0.010722,0.19556,-0.75596,-0.52699,-0.48267,0.0091866,0,0,-0.71057,-0.11525,0,0.047771,0,0,0.56788,-0.015049,0,0.56808,-0.52662,-0.75633,-0.48267,87.706,-0.58854,0.25455,-0.00076266,0.8,0.36,0
0.13186,0.010842,0.17278,-0.75854,-0.50682,-0.466,0.011609,0,0,-0.76061,-0.10615,0,0.060366,0,0,0.57198,-0.018037,0,0.57226,-0.50629,-0.75908,-0.466,87.365,-0.57712,0.27515,-0.00099299,0.82,0.36,0
0.11614,0.011006,0.1498,-0.76255,-0.48652,-0.44962,0.014064,0,0,-0.81362,-0.095941,0,0.073134,0,0,0.57781,-0.022142,0,0.57824,-0.48581,-0.76327,-0.44962,87.091,-0.56624,0.29721,-0.0012812,0.84,0.36,0
0.099319,0.011184,0.12655,-0.7682,-0.46617,-0.43359,0.016131,0,0,-0.87,-0.084719,0,0.08388,0,0,0.58612,-0.027311,0,0.58676,-0.46531,-0.76906,-0.43359,86.951,-0.55599,0.32079,-0.0016397,0.86,0.36,0
0.081337,0.011326,0.10291,-0.77492,-0.44579,-0.41767,0.017369,0,0,-0.92884,-0.073125,0,0.090316,0,0,0.59754,-0.032798,0,0.59847,-0.44488,-0.77583,-0.41767,86.987,-0.54613,0.34536,-0.0020714,0.88,0.36,0
0.062165,0.01142,0.078749,-0.783,-0.42702,-0.40238,0.017447,0,0,-0.9896,-0.064073,0,0.090724,0,0,0.61189,-0.036168,0,0.61301,-0.42617,-0.78385,-0.40238,87.201,-0.53747,0.37015,-0.0025684,0.9,0.36,0
0.041753,0.011518,0.053961,-0.78947,-0.44179,-0.40985,0.016875,0,0,-0.74865,-0.05537,0,0.065276,0,0,0.63138,-0.052507,0,0.63391,-0.44097,-0.7903,-0.40985,87.211,-0.54704,0.36603,-0.0024694,0.92,0.36,0
0.032219,0.010802,0.041099,-0.80346,-0.47871,-0.42575,0.015817,0,0,-0.49102,-0.068849,0,0.041124,0,0,0.65649,-0.060168,0,0.65936,-0.47794,-0.80423,-0.42575,87.218,-0.56931,0.35527,-0.0021364,0.94,0.36,0
0.022112,0.010293,0.027701,-0.81226,-0.46642,-0.4113,0.014515,0,0,-0.52124,-0.071649,0,0.037738,0,0,0.67901,-0.04239,0,0.68034,-0.46581,-0.81286,-0.4113,87.601,-0.56333,0.37727,-0.002565,0.96,0.36,0
0.011369,0.010049,0.013939,-0.81867,-0.44632,-0.39344,0.0089319,0,0,-0.55281,-0.068749,0,0.023223,0,0,0.69253,-0.021192,0,0.69281,-0.44611,-0.81889,-0.39344,88.627,-0.55281,0.40171,-0.0031374,0.98,0.36,0
0,0.0099895,0,-0.80407,-0.4186,-0.3668,-0.0011345,0,0,-0.56845,-0.067341,0,-0.0029496,0,0,0.69695,-1.7347e-18,0,0.69689,-0.4186,-0.80408,-0.3668,-89.831,-0.52983,0.41381,-0.003448,1,0.36,0
0,0.013185,1,-0.95441,-1.8489,-1.841,-0.0046087,0,0,1.1526,-0.010303,0,-0.011983,0,0,0.69432,7.442e-16,0,0.69428,-0.95439,-1.849,-1.841,-0.29519,-1.5481,0.89062,0.036273,0,0.38,0
0.023051,0.012945,0.98611,-0.93478,-1.8235,-1.8136,-0.01547,0,0,1.1425,-0.012895,0,-0.040221,0,0,0.69172,0.01826,0,0.69192,-0.93451,-1.8238,-1.8136,-0.99691,-1.524,0.88423,0.035492,0.02,0.38,0
0.045699,0.012211,0.97233,-0.92713,-1.8104,-1.7936,-0.031608,0,0,1.1264,-0.021851,0,-0.082181,0,0,0.68327,0.036922,0,0.68425,-0.926,-1.8115,-1.7936,-2.0468,-1.5104,0.8767,0.034559,0.04,0.38,0
0.068107,0.011017,0.95878,-0.91445,-1.8068,-1.7752,-0.046877,0,0,1.1189,-0.041156,0,-0.12188,0,0,0.66773,0.055571,0,0.67007,-0.912,-1.8093,-1.7752,-2.9988,-1.4988,0.88072,0.034909,0.06,0.38,0
0.090456,0.0095149,0.94562,-0.89757,-1.8133,-1.7589,-0.055969,0,0,1.1197,-0.070713,0,-0.14552,0,0,0.64461,0.070321,0,0.64856,-0.89416,-1.8167,-1.7589,-3.4847,-1.4899,0.89501,0.036305,0.08,0.38,0
0.11289,0.0080024,0.933,-0.86543,-1.4546,-1.3958,-0.056258,0,0,0.81787,-0.10199,0,-0.21623,0,0,0.61982,0.057232,0,0.62284,-0.85778,-1.4623,-1.3958,-7.887,-1.2386,0.57466,0.019151,0.1,0.38,0
0.12317,0.0039454,0.90866,-0.8386,-1.1039,-1.0371,-0.047883,0,0,0.51605,-0.17374,0,-0.24899,0,0,0.60111,0.034675,0,0.60216,-0.83022,-1.1123,-1.0371,-9.924,-0.99319,0.25299,0.00059057,0.12,0.38,0
0.13354,0.00074205,0.88491,-0.82473,-1.1053,-1.0215,-0.035337,0,0,0.51154,-0.21806,0,-0.18375,0,0,0.58797,0.025876,0,0.58856,-0.82035,-1.1097,-1.0215,-7.0681,-0.98385,0.25688,0.00053693,0.14,0.38,0
0.14363,-0.0014612,0.86162,-0.8156,-1.0976,-1.0048,-0.02222,0,0,0.49188,-0.24141,0,-0.11554,0,0,0.57825,0.01399,0,0.57841,-0.81386,-1.0994,-1.0048,-4.4772,-0.97267,0.25191,0.000448,0.16,0.38,0
0.15321,-0.0027702,0.83865,-0.80998,-1.0847,-0.98773,-0.010703,0,0,0.46215,-0.25212,0,-0.055653,0,0,0.57221,0.0013585,0,0.57219,-0.80956,-1.0851,-0.98773,-2.2276,-0.9608,0.24203,0.00035101,0.18,0.38,0
0.16212,-0.0033286,0.81585,-0.80683,-1.0692,-0.97074,-0.00060515,0,0,0.42616,-0.25607,0,-0.0031468,0,0,0.56937,-0.011272,0,0.56945,-0.80683,-1.0692,-0.97074,-0.13214,-0.94894,0.22959,0.00025847,0.2,0.38,0
0.17026,-0.0032457,0.7931,-0.80528,-1.052,-0.95373,0.0087167,0,0,0.38597,-0.25546,0,0.045327,0,0,0.56922,-0.023817,0,0.5697,-0.80497,-1.0523,-0.95373,2.021,-0.937,0.21565,0.0001766,0.22,0.38,0
0.17756,-0.0025716,0.77031,-0.80519,-1.0333,-0.93669,0.01797,0,0,0.34191,-0.2511,0,0.093445,0,0,0.57166,-0.036383,0,0.57279,-0.80378,-1.0347,-0.93669,4.4775,-0.92505,0.20072,0.00010732,0.24,0.38,0
0.18393,-0.0013043,0.74737,-0.80672,-1.0129,-0.91958,0.027792,0,0,0.29341,-0.24268,0,0.14452,0,0,0.57692,-0.049038,0,0.57899,-0.80304,-1.0166,-0.91958,7.5434,-0.91307,0.1852,5.1368e-05,0.26,0.38,0
0.18929,0.00061168,0.72415,-0.8106,-0.99042,-0.90238,0.038666,0,0,0.23863,-0.22889,0,0.20106,0,0,0.58563,-0.061568,0,0.58886,-0.80264,-0.99838,-0.90238,11.635,-0.90113,0.16953,8.2963e-06,0.28,0.38,0
0.19348,0.0032667,0.70052,-0.81751,-0.96384,-0.88466,0.05074,0,0,0.1746,-0.20586,0,0.26385,0,0,0.59826,-0.072967,0,0.60273,-0.80164,-0.97971,-0.88466,17.37,-0.88867,0.15433,-2.2017e-05,0.3,0.38,0
0.19628,0.0067531,0.67629,-0.82865,-0.93053,-0.8659,0.062473,0,0,0.096849,-0.16803,0,0.32486,0,0,0.61445,-0.080564,0,0.61978,-0.79898,-0.9602,-0.8659,25.403,-0.87503,0.14029,-4.0984e-05,0.32,0.38,0
0.19735,0.011007,0.65136,-0.84944,-1.1514,-1.0888,0.071572,0,0,0.32458,-0.10852,0,0.27523,0,0,0.6368,-0.12286,0,0.6498,-0.82233,-1.1785,-1.0888,20.23,-1.0299,0.32604,0.0032298,0.34,0.38,0
0.20926,0.012008,0.63836,-0.87646,-1.3785,-1.3149,0.075839,0,0,0.56991,-0.082779,0,0.19718,0,0,0.66624,-0.15419,0,0.68402,-0.86525,-1.3897,-1.3149,8.405,-1.1899,0.49134,0.005618,0.36,0.38,0
0.22015,0.013197,0.62471,-0.89241,-1.3332,-1.2924,0.072327,0,0,0.51997,-0.053029,0,0.18805,0,0,0.69394,-0.13386,0,0.70676,-0.88085,-1.3447,-1.2924,9.0846,-1.1727,0.44006,0.0041687,0.38,0.38,0
0.23006,0.014328,0.6106,-0.90509,-1.2913,-1.2695,0.060359,0,0,0.47375,-0.028307,0,0.15693,0,0,0.71285,-0.10741,0,0.72084,-0.89587,-1.3005,-1.2695,8.6791,-1.1553,0.39005,0.0029831,0.4,0.38,0
0.2391,0.015196,0.5962,-0.91215,-1.2555,-1.2465,0.043343,0,0,0.43465,-0.011721,0,0.11269,0,0,0.72268,-0.078144,0,0.72679,-0.90677,-1.2609,-1.2465,7.0846,-1.1381,0.34716,0.0021363,0.42,0.38,0
0.24745,0.015678,0.58169,-0.91087,-1.224,-1.2221,0.022461,0,0,0.40464,-0.0023526,0,0.058399,0,0,0.72306,-0.045675,0,0.72437,-0.90927,-1.2255,-1.2221,4.0828,-1.119,0.31459,0.0015983,0.44,0.38,0
0.25529,0.015701,0.56727,-0.89704,-1.197,-1.1955,-0.00013977,0,0,0.38797,-0.0019299,0,-0.00036339,0,0,0.7103,-0.008943,0,0.71022,-0.89704,-1.197,-1.1955,-0.0267,-1.0965,0.29918,0.0013753,0.46,0.38,0
0.26297,0.015401,0.55328,-0.88055,-1.1872,-1.1736,-0.020525,0,0,0.38096,-0.017666,0,-0.053365,0,0,0.6811,0.031534,0,0.68205,-0.87918,-1.1886,-1.1736,-3.8124,-1.0804,0.30217,0.0014054,0.48,0.38,0
0.27053,0.014978,0.54003,-0.84738,-0.96465,-0.94863,-0.027582,0,0,0.074244,-0.027767,0,-0.10711,0,0,0.6442,0.039059,0,0.64579,-0.80304,-1.009,-0.94863,-38.773,-0.92022,0.20087,0.00069733,0.5,0.38,0
0.26593,0.013176,0.51499,-0.8219,-0.76495,-0.73355,-0.02732,0,0,-0.22972,-0.081633,0,-0.14206,0,0,0.61489,0.029057,0,0.6157,-0.75396,-0.83289,-0.73355,-68.094,-0.77347,0.090868,-3.2077e-05,0.52,0.38,0
0.26134,0.011806,0.49084,-0.80477,-0.75913,-0.71459,-0.021184,0,0,-0.23447,-0.1158,0,-0.11016,0,0,0.5956,0.020216,0,0.59597,-0.75081,-0.81308,-0.71459,-68.564,-0.7595,0.086289,-1.4489e-05,0.54,0.38,0
0.25656,0.01079,0.46734,-0.79082,-0.74586,-0.69468,-0.01575,0,0,-0.24996,-0.13309,0,-0.0819,0,0,0.58268,0.011371,0,0.58279,-0.74089,-0.79578,-0.69468,-72.49,-0.74379,0.087671,-5.1171e-06,0.56,0.38,0
0.25134,0.010055,0.44423,-0.78159,-0.73123,-0.67596,-0.011537,0,0,-0.27463,-0.14372,0,-0.05999,0,0,0.57493,0.004528,0,0.57495,-0.72872,-0.78411,-0.67596,-77.691,-0.72959,0.093666,-1.7776e-06,0.58,0.38,0
0.24557,0.0094935,0.42135,-0.7746,-0.71534,-0.65765,-0.0085035,0,0,-0.30406,-0.14997,0,-0.044218,0,0,0.56994,-0.00043527,0,0.56994,-0.71414,-0.7758,-0.65765,-81.994,-0.71586,0.10235,-4.1725e-06,0.6,0.38,0
0.23917,0.009055,0.39863,-0.76918,-0.69861,-0.63965,-0.0062243,0,0,-0.33677,-0.15328,0,-0.032366,0,0,0.56656,-0.0039139,0,0.56657,-0.69806,-0.76972,-0.63965,-84.998,-0.70248,0.11284,-1.294e-05,0.62,0.38,0
0.2321,0.0087065,0.37602,-0.76482,-0.68122,-0.62182,-0.0044391,0,0,-0.37179,-0.15442,0,-0.023083,0,0,0.56421,-0.0062921,0,0.56424,-0.68098,-0.76506,-0.62182,-86.969,-0.68929,0.12467,-2.9435e-05,0.64,0.38,0
0.2243,0.0084306,0.35349,-0.76125,-0.6633,-0.60411,-0.0029354,0,0,-0.40856,-0.15389,0,-0.015264,0,0,0.56259,-0.0078957,0,0.56264,-0.66321,-0.76134,-0.60411,-88.285,-0.67622,0.13755,-5.5359e-05,0.66,0.38,0
0.21576,0.0082189,0.33102,-0.75829,-0.64495,-0.58648,-0.001551,0,0,-0.44671,-0.15203,0,-0.0080653,0,0,0.56153,-0.0089978,0,0.5616,-0.64493,-0.75831,-0.58648,-89.216,-0.66324,0.15132,-9.2647e-05,0.68,0.38,0
0.20644,0.008069,0.30857,-0.75585,-0.62627,-0.56892,-0.00015169,0,0,-0.48601,-0.1491,0,-0.00078878,0,0,0.56094,-0.0098344,0,0.56103,-0.62627,-0.75585,-0.56892,-89.933,-0.65034,0.16587,-0.00014342,0.7,0.38,0
0.19632,0.007982,0.28614,-0.75387,-0.60731,-0.55143,0.0013809,0,0,-0.52636,-0.14531,0,0.0071804,0,0,0.56078,-0.01062,0,0.56088,-0.6073,-0.75388,-0.55143,89.46,-0.63753,0.1811,-0.00021004,0.72,0.38,0
0.18538,0.0079617,0.26371,-0.75235,-0.58815,-0.534,0.0031568,0,0,-0.56769,-0.14078,0,0.016415,0,0,0.56102,-0.011566,0,0.56114,-0.58809,-0.75241,-0.534,88.899,-0.62484,0.19701,-0.0002952,0.74,0.38,0
0.17361,0.0080134,0.24126,-0.75133,-0.56884,-0.51668,0.0052825,0,0,-0.61008,-0.13562,0,0.027469,0,0,0.56171,-0.012895,0,0.56185,-0.56869,-0.75148,-0.51668,88.343,-0.61228,0.2136,-0.00040225,0.76,0.38,0
0.16098,0.0081427,0.21877,-0.75092,-0.54941,-0.49948,0.0078595,0,0,-0.65373,-0.12981,0,0.040869,0,0,0.56291,-0.014858,0,0.5631,-0.5491,-0.75122,-0.49948,87.77,-0.59994,0.23096,-0.00053564,0.78,0.38,0
0.14746,0.0083539,0.19623,-0.75134,-0.52987,-0.48248,0.010977,0,0,-0.69904,-0.12323,0,0.05708,0,0,0.56478,-0.017753,0,0.56505,-0.52933,-0.75188,-0.48248,87.169,-0.5879,0.2493,-0.00070199,0.8,0.38,0
0.13302,0.0086479,0.17359,-0.75297,-0.5102,-0.46575,0.014689,0,0,-0.74679,-0.11558,0,0.076381,0,0,0.56761,-0.021945,0,0.56803,-0.50932,-0.75386,-0.46575,86.55,-0.57631,0.26899,-0.0009118,0.82,0.38,0
0.11759,0.0090174,0.15082,-0.75648,-0.49034,-0.44945,0.018941,0,0,-0.79827,-0.10629,0,0.098492,0,0,0.57198,-0.027865,0,0.57266,-0.48899,-0.75782,-0.44945,85.95,-0.56542,0.29062,-0.0011824,0.84,0.38,0
0.10108,0.0094367,0.12783,-0.76274,-0.4701,-0.43377,0.023494,0,0,-0.85532,-0.094466,0,0.12217,0,0,0.57908,-0.035959,0,0.5802,-0.46823,-0.76461,-0.43377,85.439,-0.55553,0.31503,-0.0015412,0.86,0.38,0
0.083376,0.0098609,0.10449,-0.77296,-0.4496,-0.41901,0.027474,0,0,-0.92026,-0.07952,0,0.14287,0,0,0.59133,-0.046372,0,0.59317,-0.44728,-0.77528,-0.41901,85.178,-0.54719,0.34301,-0.0020253,0.88,0.38,0
0.064275,0.010174,0.080525,-0.78425,-0.42712,-0.40367,0.030355,0,0,-0.98949,-0.060971,0,0.15785,0,0,0.60987,-0.056994,0,0.61265,-0.42456,-0.78681,-0.40367,85.176,-0.53835,0.37313,-0.0026399,0.9,0.38,0
0.043796,0.010497,0.055701,-0.79844,-0.44167,-0.41381,0.030829,0,0,-0.75601,-0.048298,0,0.11802,0,0,0.63823,-0.084363,0,0.64458,-0.439,-0.80111,-0.41381,85.072,-0.55131,0.37544,-0.002682,0.92,0.38,0
0.034035,0.0094842,0.042584,-0.82363,-0.48251,-0.43442,0.034813,0,0,-0.50596,-0.06251,0,0.090514,0,0,0.67421,-0.095428,0,0.68115,-0.47899,-0.82714,-0.43442,84.232,-0.58019,0.37244,-0.0025257,0.94,0.38,0
0.023557,0.0089804,0.028733,-0.83785,-0.45577,-0.41682,0.029551,0,0,-0.54734,-0.050639,0,0.076833,0,0,0.7035,-0.059949,0,0.70595,-0.4535,-0.84012,-0.41682,85.603,-0.57015,0.4062,-0.0033479,0.96,0.38,0
0.012141,0.0088691,0.014444,-0.85341,-0.43305,-0.40038,0.016931,0,0,-0.58894,-0.042467,0,0.044021,0,0,0.71832,-0.02852,0,0.71879,-0.43237,-0.85409,-0.40038,87.697,-0.56228,0.43859,-0.0042556,0.98,0.38,0
0,0.008856,0,-0.84006,-0.40356,-0.37309,-0.00025187,0,0,-0.60706,-0.039619,0,-0.00065486,0,0,0.7222,6.9389e-18,0,0.72211,-0.40356,-0.84006,-0.37309,-89.967,-0.5389,0.4525,-0.004686,1,0.38,0
0,0.013156,1,-0.96642,-1.8343,-1.8402,-0.0054948,0,0,1.1359,0.0077181,0,-0.014287,0,0,0.715,-1.8926e-15,0,0.71494,-0.96638,-1.8343,-1.8402,-0.36275,-1.547,0.87089,0.033919,0,0.4,0
0.022718,0.01287,0.9857,-0.94732,-1.8072,-1.8121,-0.017381,0,0,1.1242,0.0062714,0,-0.045191,0,0,0.71288,0.022536,0,0.71317,-0.94697,-1.8076,-1.8121,-1.1575,-1.5222,0.86287,0.032994,0.02,0.4,0
0.044967,0.011974,0.97149,-0.94287,-1.7916,-1.7918,-0.037761,0,0,1.1037,0.00027918,0,-0.098178,0,0,0.70559,0.04681,0,0.70707,-0.9412,-1.7933,-1.7918,-2.5424,-1.5088,0.85137,0.031694,0.04,0.4,0
0.066864,0.010363,0.95748,-0.92673,-1.7819,-1.7701,-0.061028,0,0,1.0963,-0.015388,0,-0.15867,0,0,0.68872,0.074465,0,0.69268,-0.9224,-1.7862,-1.7701,-4.0614,-1.4929,0.85587,0.032161,0.06,0.4,0
0.08882,0.0081645,0.94394,-0.90636,-1.8014,-1.7563,-0.081571,0,0,1.1049,-0.058635,0,-0.21208,0,0,0.65837,0.10571,0,0.66707,-0.89898,-1.8087,-1.7563,-5.1653,-1.488,0.88467,0.035139,0.08,0.4,0
0.11106,0.005888,0.93114,-0.87004,-1.4652,-1.3989,-0.08074,0,0,0.81919,-0.11493,0,-0.30846,0,0,0.62208,0.088688,0,0.62923,-0.85547,-1.4798,-1.3989,-10.466,-1.2447,0.58892,0.019306,0.1,0.4,0
0.12159,0.00018365,0.90696,-0.83602,-1.1227,-1.0411,-0.066115,0,0,0.53323,-0.21224,0,-0.3438,0,0,0.59383,0.054853,0,0.59646,-0.82151,-1.1373,-1.0411,-12.379,-0.99996,0.28032,0.00069906,0.12,0.4,0
0.13239,-0.0039365,0.88364,-0.81918,-1.1236,-1.0247,-0.045294,0,0,0.53425,-0.25733,0,-0.23553,0,0,0.57562,0.03857,0,0.57691,-0.81259,-1.1302,-1.0247,-8.2849,-0.98916,0.2802,0.00061318,0.14,0.4,0
0.14296,-0.0065713,0.86091,-0.80883,-1.1111,-1.0064,-0.027768,0,0,0.51377,-0.27209,0,-0.14439,0,0,0.56402,0.021308,0,0.56439,-0.80629,-1.1136,-1.0064,-5.2057,-0.97544,0.27017,0.00050207,0.16,0.4,0
0.15294,-0.0080468,0.83851,-0.80402,-1.096,-0.98926,-0.013837,0,0,0.48165,-0.27754,0,-0.071952,0,0,0.55804,0.0051374,0,0.55803,-0.80336,-1.0967,-0.98926,-2.707,-0.9631,0.25702,0.00038711,0.18,0.4,0
0.16222,-0.0086567,0.81627,-0.80098,-1.0792,-0.9722,-0.002288,0,0,0.44515,-0.27825,0,-0.011898,0,0,0.55549,-0.010094,0,0.55555,-0.80097,-1.0792,-0.9722,-0.47113,-0.9508,0.24311,0.0002855,0.2,0.4,0
0.17075,-0.0085483,0.79407,-0.79934,-1.0616,-0.95532,0.0082674,0,0,0.40553,-0.27632,0,0.042991,0,0,0.55544,-0.024887,0,0.55597,-0.79908,-1.0618,-0.95532,1.8039,-0.93875,0.22892,0.0001975,0.22,0.4,0
0.17844,-0.0077872,0.77184,-0.799,-1.0433,-0.93861,0.018845,0,0,0.36299,-0.27222,0,0.097992,0,0,0.55769,-0.039791,0,0.55908,-0.79755,-1.0448,-0.93861,4.3848,-0.92697,0.2148,0.00012299,0.24,0.4,0
0.18526,-0.006362,0.74946,-0.80032,-1.0242,-0.92209,0.030367,0,0,0.3166,-0.26553,0,0.15791,0,0,0.56266,-0.055316,0,0.56534,-0.79627,-1.0283,-0.92209,7.5884,-0.91554,0.20115,6.1036e-05,0.26,0.4,0
0.19111,-0.0041922,0.72682,-0.80392,-1.0035,-0.90565,0.043883,0,0,0.26449,-0.25451,0,0.22819,0,0,0.57153,-0.071832,0,0.57601,-0.7947,-1.0128,-0.90565,11.867,-0.90437,0.18885,1.0543e-05,0.28,0.4,0
0.19584,-0.001084,0.70374,-0.81283,-0.98067,-0.88992,0.060159,0,0,0.20042,-0.23595,0,0.31283,0,0,0.58666,-0.089198,0,0.59343,-0.7935,-1,-0.88992,17.818,-0.89447,0.17897,-3.3649e-05,0.3,0.4,0
0.19913,0.0031901,0.67989,-0.8273,-0.9474,-0.87236,0.079137,0,0,0.11714,-0.19512,0,0.41151,0,0,0.60889,-0.1046,0,0.61796,-0.78801,-0.98669,-0.87236,26.404,-0.88235,0.17272,-6.8236e-05,0.32,0.4,0
0.20053,0.0088087,0.65503,-0.85665,-1.165,-1.0978,0.0944,0,0,0.33098,-0.11653,0,0.36059,0,0,0.64219,-0.15949,0,0.66369,-0.81789,-1.2038,-1.0978,22.034,-1.0398,0.35039,0.0033845,0.34,0.4,0
0.21237,0.010427,0.64177,-0.89117,-1.3767,-1.3221,0.10305,0,0,0.56025,-0.07093,0,0.26794,0,0,0.68501,-0.19577,0,0.71276,-0.8702,-1.3977,-1.3221,11.501,-1.1967,0.49404,0.0057083,0.36,0.4,0
0.22294,0.012329,0.62763,-0.9135,-1.3151,-1.2962,0.091259,0,0,0.49752,-0.024575,0,0.23727,0,0,0.72219,-0.15797,0,0.73921,-0.89373,-1.3349,-1.2962,12.22,-1.1749,0.42313,0.0037817,0.38,0.4,0
0.23227,0.014029,0.61288,-0.93462,-1.2738,-1.2754,0.071998,0,0,0.44304,0.0020513,0,0.18719,0,0,0.74523,-0.12182,0,0.75502,-0.91997,-1.2885,-1.2754,11.5,-1.1613,0.36216,0.002429,0.4,0.4,0
0.24066,0.015263,0.59782,-0.94449,-1.2352,-1.2517,0.049263,0,0,0.3994,0.021491,0,0.12808,0,0,0.75779,-0.085393,0,0.76244,-0.93636,-1.2433,-1.2517,9.3614,-1.1438,0.31123,0.0015446,0.42,0.4,0
0.24824,0.015968,0.58257,-0.94843,-1.1992,-1.2269,0.022766,0,0,0.36196,0.035959,0,0.059193,0,0,0.76306,-0.045393,0,0.76419,-0.94638,-1.2012,-1.2269,5.1457,-1.1248,0.26859,0.00096472,0.44,0.4,0
0.25514,0.01605,0.56729,-0.94332,-1.1672,-1.2005,-0.011574,0,0,0.33428,0.043208,0,-0.030091,0,0,0.75898,0.0024585,0,0.75864,-0.94272,-1.1678,-1.2005,-2.9512,-1.1037,0.24306,0.00069289,0.46,0.4,0
0.26161,0.015255,0.55221,-0.8971,-1.1338,-1.1615,-0.04811,0,0,0.34369,0.035995,0,-0.12509,0,0,0.72081,0.065925,0,0.72288,-0.8877,-1.1432,-1.1615,-11.061,-1.0641,0.26511,0.0009417,0.48,0.4,0
0.26889,0.014484,0.53846,-0.85998,-0.96974,-0.95276,-0.075201,0,0,0.0594,-0.029433,0,-0.27963,0,0,0.65817,0.12175,0,0.67231,-0.78956,-1.0402,-0.95276,-38.045,-0.9275,0.23523,0.00077464,0.5,0.4,0
0.26399,0.01144,0.51331,-0.82828,-0.78825,-0.74161,-0.050951,0,0,-0.22533,-0.12126,0,-0.26495,0,0,0.60898,0.054574,0,0.61141,-0.75352,-0.86301,-0.74161,-55.722,-0.78605,0.1159,-7.7113e-05,0.52,0.4,0
0.25987,0.009307,0.48974,-0.79644,-0.7683,-0.71429,-0.035248,0,0,-0.21358,-0.14042,0,-0.18329,0,0,0.58242,0.032456,0,0.58329,-0.74442,-0.82032,-0.71429,-55.88,-0.75968,0.094634,-2.9121e-05,0.54,0.4,0
0.25545,0.0080038,0.46672,-0.78433,-0.75229,-0.69434,-0.024361,0,0,-0.23396,-0.15066,0,-0.12668,0,0,0.57262,0.018283,0,0.5729,-0.73915,-0.79746,-0.69434,-61.664,-0.74365,0.089561,-8.2795e-06,0.56,0.4,0
0.25052,0.0070849,0.44393,-0.77628,-0.73544,-0.67548,-0.017745,0,0,-0.26207,-0.15589,0,-0.092276,0,0,0.56782,0.0088565,0,0.56788,-0.72881,-0.78291,-0.67548,-69.504,-0.72907,0.093037,-5.2005e-07,0.58,0.4,0
0.24496,0.0064255,0.42129,-0.77063,-0.71832,-0.65733,-0.013178,0,0,-0.29458,-0.15857,0,-0.068526,0,0,0.565,0.0024772,0,0.565,-0.71518,-0.77376,-0.65733,-76.629,-0.71542,0.10083,-5.6333e-07,0.6,0.4,0
0.23873,0.0059385,0.39873,-0.7662,-0.70082,-0.63947,-0.0099237,0,0,-0.32948,-0.15951,0,-0.051603,0,0,0.56315,-0.0018729,0,0.56315,-0.69935,-0.76767,-0.63947,-81.556,-0.70217,0.1111,-8.013e-06,0.62,0.4,0
0.23178,0.0055789,0.37624,-0.76252,-0.68298,-0.62177,-0.0074508,0,0,-0.36595,-0.15916,0,-0.038744,0,0,0.56187,-0.0048458,0,0.56189,-0.68229,-0.76321,-0.62177,-84.694,-0.68909,0.12292,-2.3524e-05,0.64,0.4,0
0.22409,0.0053201,0.35378,-0.75934,-0.66483,-0.60414,-0.0054362,0,0,-0.40351,-0.15779,0,-0.028268,0,0,0.56097,-0.0068935,0,0.56101,-0.66452,-0.75965,-0.60414,-86.719,-0.6761,0.13579,-4.8298e-05,0.66,0.4,0
0.21564,0.0051476,0.33136,-0.75651,-0.64641,-0.58656,-0.0036485,0,0,-0.44188,-0.15562,0,-0.018972,0,0,0.56034,-0.0083544,0,0.5604,-0.64629,-0.75663,-0.58656,-88.104,-0.66316,0.14945,-8.3757e-05,0.68,0.4,0
0.20642,0.0050542,0.30896,-0.75395,-0.62778,-0.569,-0.0019093,0,0,-0.48087,-0.15284,0,-0.0099282,0,0,0.55993,-0.0095017,0,0.56001,-0.62775,-0.75398,-0.569,-89.133,-0.65024,0.16371,-0.00013143,0.7,0.4,0
0.19641,0.0050373,0.28657,-0.7516,-0.60901,-0.55147,-6.6168e-05,0,0,-0.52036,-0.1496,0,-0.00034407,0,0,0.55971,-0.010576,0,0.55981,-0.60901,-0.7516,-0.55147,-89.973,-0.63736,0.17847,-0.00019291,0.72,0.4,0
0.1856,0.0050982,0.26418,-0.74946,-0.59015,-0.53397,0.0020238,0,0,-0.56027,-0.14606,0,0.010524,0,0,0.55967,-0.01181,0,0.55979,-0.59012,-0.74949,-0.53397,89.272,-0.62453,0.19365,-0.00026994,0.74,0.4,0
0.174,0.0052405,0.24179,-0.74754,-0.57126,-0.51654,0.0045075,0,0,-0.60061,-0.14228,0,0.023439,0,0,0.55981,-0.013452,0,0.55998,-0.57115,-0.74765,-0.51654,88.536,-0.61178,0.20923,-0.0003646,0.76,0.4,0
0.16158,0.0054697,0.2194,-0.7459,-0.55239,-0.49918,0.0075488,0,0,-0.64147,-0.13833,0,0.039254,0,0,0.56016,-0.01579,0,0.56039,-0.5521,-0.7462,-0.49918,87.769,-0.59916,0.22527,-0.0004797,0.78,0.4,0
0.14834,0.005793,0.19698,-0.74472,-0.53356,-0.48197,0.011345,0,0,-0.68314,-0.13412,0,0.058993,0,0,0.56079,-0.019189,0,0.56112,-0.53295,-0.74533,-0.48197,86.933,-0.58675,0.24193,-0.00061978,0.8,0.4,0
0.13426,0.0062187,0.17453,-0.74434,-0.51477,-0.465,0.01614,0,0,-0.72629,-0.1294,0,0.083928,0,0,0.56186,-0.024145,0,0.56238,-0.51364,-0.74547,-0.465,85.998,-0.5747,0.25959,-0.00079317,0.82,0.4,0
0.11929,0.0067544,0.15203,-0.74551,-0.49597,-0.44846,0.022252,0,0,-0.77233,-0.12354,0,0.11571,0,0,0.56379,-0.031379,0,0.56466,-0.49401,-0.74748,-0.44846,84.944,-0.56332,0.27905,-0.0010165,0.84,0.4,0
0.10336,0.0074054,0.12943,-0.74988,-0.47717,-0.43283,0.029959,0,0,-0.82433,-0.11528,0,0.15579,0,0,0.56761,-0.042002,0,0.56914,-0.47392,-0.75313,-0.43283,83.804,-0.55329,0.30186,-0.0013249,0.86,0.4,0
0.086315,0.0081455,0.10662,-0.76047,-0.45829,-0.41894,0.039769,0,0,-0.88799,-0.1023,0,0.2068,0,0,0.5765,-0.057806,0,0.57935,-0.45314,-0.76562,-0.41894,82.627,-0.5459,0.33091,-0.0017942,0.88,0.4,0
0.067842,0.0089809,0.083308,-0.78686,-0.44231,-0.4104,0.050496,0,0,-0.97879,-0.082944,0,0.26258,0,0,0.60202,-0.081938,0,0.60755,-0.43506,-0.79411,-0.4104,81.832,-0.54652,0.37199,-0.0026046,0.9,0.4,0
0.047163,0.0095857,0.05846,-0.8086,-0.44914,-0.42117,0.074601,0,0,-0.76214,-0.048491,0,0.27436,0,0,0.64919,-0.16443,0,0.67313,-0.43366,-0.82409,-0.42117,78.68,-0.55964,0.39683,-0.0032005,0.92,0.4,0
0.037356,0.0083019,0.044916,-0.84659,-0.45627,-0.43578,0.065234,0,0,-0.53406,-0.026643,0,0.16961,0,0,0.70902,-0.12727,0,0.71952,-0.44566,-0.85721,-0.43578,80.759,-0.57955,0.41658,-0.0037059,0.94,0.4,0
0.025801,0.008267,0.030099,-0.89273,-0.43772,-0.42924,0.048528,0,0,-0.60255,-0.011031,0,0.12617,0,0,0.74592,-0.071915,0,0.74913,-0.4326,-0.89785,-0.42924,83.98,-0.58656,0.46694,-0.005228,0.96,0.4,0
0.013254,0.0083498,0.01508,-0.90772,-0.41386,-0.41156,0.024444,0,0,-0.64502,-0.0029995,0,0.063554,0,0,0.75248,-0.032714,0,0.75305,-0.41266,-0.90893,-0.41156,87.173,-0.57771,0.49683,-0.0062984,0.98,0.4,0
0,0.0084048,0,-0.8924,-0.383,-0.38262,0.0010566,0,0,-0.66272,-0.00049716,0,0.002747,0,0,0.75399,2.0817e-17,0,0.75387,-0.383,-0.89241,-0.38262,89.881,-0.55268,0.50959,-0.0067966,1,0.4,0
0,0.013494,1,-0.97625,-1.8196,-1.8388,-0.0057215,0,0,1.1213,0.024855,0,-0.014876,0,0,0.7394,-1.9724e-15,0,0.73932,-0.97621,-1.8197,-1.8388,-0.38866,-1.5449,0.85318,0.031843,0,0.42,0
0.022426,0.013196,0.98521,-0.95836,-1.7905,-1.8099,-0.016823,0,0,1.107,0.025183,0,-0.043741,0,0,0.73853,0.025098,0,0.73888,-0.95802,-1.7908,-1.8099,-1.1577,-1.5196,0.84249,0.03066,0.02,0.42,0
0.044278,0.012222,0.97046,-0.95973,-1.7702,-1.7894,-0.037914,0,0,1.0786,0.025029,0,-0.098575,0,0,0.7352,0.053196,0,0.73701,-0.95796,-1.7719,-1.7894,-2.6726,-1.5064,0.82287,0.028573,0.04,0.42,0
0.06557,0.010402,0.9558,-0.95906,-1.755,-1.77,-0.070096,0,0,1.0542,0.019547,0,-0.18225,0,0,0.72663,0.088434,0,0.73179,-0.95294,-1.7611,-1.77,-4.9948,-1.4947,0.81266,0.027554,0.06,0.42,0
0.086448,0.0071695,0.94139,-0.90993,-1.7395,-1.7362,-0.10868,0,0,1.0742,-0.0042616,0,-0.28257,0,0,0.68839,0.13875,0,0.70152,-0.89593,-1.7535,-1.7362,-7.3412,-1.4619,0.84907,0.031394,0.08,0.42,0
0.10854,0.0034053,0.92827,-0.87947,-1.4906,-1.4072,-0.12972,0,0,0.81988,-0.14447,0,-0.48456,0,0,0.62808,0.16771,0,0.65363,-0.84747,-1.5226,-1.4072,-14.459,-1.2591,0.62685,0.020729,0.1,0.42,0
0.11924,-0.0045443,0.90427,-0.8388,-1.1659,-1.0535,-0.088267,0,0,0.55834,-0.29212,0,-0.45899,0,0,0.58056,0.080249,0,0.58604,-0.8165,-1.1882,-1.0535,-14.178,-1.0194,0.32594,0.00081052,0.12,0.42,0
0.13087,-0.0095513,0.88182,-0.80833,-1.1447,-1.0268,-0.055234,0,0,0.56809,-0.30651,0,-0.28722,0,0,0.55443,0.050369,0,0.55662,-0.79949,-1.1536,-1.0268,-9.09,-0.99329,0.31072,0.00072218,0.14,0.42,0
0.14197,-0.012345,0.85992,-0.80144,-1.1275,-1.0086,-0.032385,0,0,0.53871,-0.309,0,-0.1684,0,0,0.54482,0.02724,0,0.54543,-0.79825,-1.1307,-1.0086,-5.6179,-0.97918,0.29125,0.00055966,0.16,0.42,0
0.15242,-0.013872,0.83824,-0.79673,-1.1087,-0.99074,-0.016716,0,0,0.50442,-0.30663,0,-0.086923,0,0,0.54081,0.0079222,0,0.54081,-0.79584,-1.1096,-0.99074,-3.0586,-0.96539,0.27435,0.00042981,0.18,0.42,0
0.16214,-0.014459,0.81665,-0.79383,-1.0902,-0.97354,-0.0040076,0,0,0.46723,-0.30332,0,-0.02084,0,0,0.53934,-0.0093538,0,0.53938,-0.79378,-1.0902,-0.97354,-0.77459,-0.95252,0.25868,0.00031857,0.2,0.42,0
0.17111,-0.014298,0.79509,-0.79189,-1.0722,-0.95676,0.0074454,0,0,0.42867,-0.30003,0,0.038716,0,0,0.53953,-0.025837,0,0.5401,-0.79169,-1.0723,-0.95676,1.5206,-0.94027,0.24432,0.0002244,0.22,0.42,0
0.17929,-0.013461,0.77349,-0.79089,-1.0546,-0.94039,0.019075,0,0,0.38869,-0.2969,0,0.099189,0,0,0.54123,-0.042551,0,0.54285,-0.78952,-1.0559,-0.94039,4.1161,-0.92862,0.23141,0.00014452,0.24,0.42,0
0.18666,-0.011926,0.75179,-0.79128,-1.0373,-0.92448,0.032222,0,0,0.34632,-0.29341,0,0.16755,0,0,0.54488,-0.0605,0,0.54818,-0.78713,-1.0415,-0.92448,7.3384,-0.9177,0.22051,7.6016e-05,0.26,0.42,0
0.19314,-0.0095689,0.7299,-0.79437,-1.0202,-0.90932,0.048313,0,0,0.29887,-0.28826,0,0.25123,0,0,0.55174,-0.080861,0,0.55758,-0.78447,-1.0301,-0.90932,11.583,-0.90796,0.21273,1.4218e-05,0.28,0.42,0
0.19861,-0.0061712,0.70765,-0.80146,-1.0016,-0.89475,0.070542,0,0,0.24255,-0.27787,0,0.36682,0,0,0.56549,-0.10521,0,0.57512,-0.7791,-1.024,-0.89475,17.589,-0.89928,0.21219,-4.7048e-05,0.3,0.42,0
0.20285,-0.0010518,0.68466,-0.83032,-0.98637,-0.88734,0.10118,0,0,0.14826,-0.25749,0,0.52611,0,0,0.59732,-0.13598,0,0.61267,-0.78057,-1.0361,-0.88734,26.18,-0.90134,0.2223,-0.00015804,0.32,0.42,0
0.20454,0.0063462,0.65987,-0.86817,-1.1943,-1.1136,0.14462,0,0,0.34031,-0.13982,0,0.53947,0,0,0.65197,-0.24702,0,0.70216,-0.80137,-1.2611,-1.1136,25.266,-1.0587,0.41154,0.0041472,0.34,0.42,0
0.21646,0.0091706,0.64619,-0.90303,-1.3312,-1.3164,0.1364,0,0,0.53744,-0.019133,0,0.35465,0,0,0.72093,-0.23498,0,0.75756,-0.86326,-1.3709,-1.3164,16.253,-1.1835,0.48273,0.0055302,0.36,0.42,0
0.22604,0.012214,0.63103,-0.95781,-1.2953,-1.307,0.10995,0,0,0.45389,0.015193,0,0.28587,0,0,0.76789,-0.1793,0,0.78833,-0.92514,-1.3279,-1.307,16.545,-1.1867,0.39272,0.0030808,0.38,0.42,0
0.23461,0.01441,0.61547,-0.97047,-1.2543,-1.2829,0.082738,0,0,0.40615,0.037223,0,0.21512,0,0,0.78543,-0.13643,0,0.79704,-0.94811,-1.2766,-1.2829,15.123,-1.1692,0.33169,0.0018719,0.4,0.42,0
0.24229,0.016056,0.59961,-0.98063,-1.2133,-1.2578,0.058937,0,0,0.36031,0.05784,0,0.15324,0,0,0.79911,-0.096064,0,0.8047,-0.96655,-1.2274,-1.2578,13.434,-1.1506,0.27729,0.0010507,0.42,0.42,0
0.24903,0.017117,0.58351,-0.99206,-1.1718,-1.2327,0.030901,0,0,0.31277,0.079147,0,0.080341,0,0,0.81092,-0.052212,0,0.81237,-0.9869,-1.1769,-1.2327,9.4888,-1.1322,0.22318,0.0004532,0.44,0.42,0
0.2548,0.017429,0.56718,-1.0075,-1.1334,-1.2094,-0.0052182,0,0,0.26254,0.098878,0,-0.013567,0,0,0.82162,0.00082965,0,0.82123,-1.0073,-1.1336,-1.2094,-2.3695,-1.1168,0.17689,0.00011839,0.46,0.42,0
0.25953,0.016841,0.55064,-1.0296,-1.1027,-1.1903,-0.066372,0,0,0.20897,0.11391,0,-0.17257,0,0,0.84098,0.073604,0,0.84298,-0.99037,-1.1419,-1.1903,-30.575,-1.1075,0.18069,0.00023125,0.48,0.42,0
0.26315,0.013801,0.53354,-0.95598,-0.91066,-0.96015,-0.13045,0,0,-0.027608,0.055792,0,-0.47926,0,0,0.76242,0.16285,0,0.77922,-0.80092,-1.0657,-0.96015,-49.931,-0.94227,0.23731,0.00037417,0.5,0.42,0
0.26051,0.0083254,0.51062,-1.0129,-0.8122,-0.9305,-0.080911,0,0,-0.14284,0.11486,0,-0.3014,0,0,0.84926,0.067917,0,0.8519,-0.76603,-1.0591,-0.9305,-60.914,-0.91853,0.26578,0.00099102,0.52,0.42,0
0.25744,0.0061894,0.48824,-1.0006,-0.787,-0.90245,-0.041758,0,0,-0.17006,0.11112,0,-0.16124,0,0,0.83896,0.037769,0,0.83985,-0.76589,-1.0217,-0.90245,-65.581,-0.89667,0.2377,0.00082559,0.54,0.42,0
0.25371,0.0047632,0.46588,-0.99612,-0.76457,-0.87762,-0.02794,0,0,-0.20541,0.10645,0,-0.10916,0,0,0.83862,0.020786,0,0.83889,-0.75323,-1.0075,-0.87762,-69.861,-0.87943,0.24101,0.00075041,0.56,0.42,0
0.24923,0.0038189,0.44352,-0.99523,-0.74536,-0.85481,-0.01934,0,0,-0.24338,0.10146,0,-0.076492,0,0,0.83869,0.010303,0,0.83875,-0.74001,-1.0006,-0.85481,-75.715,-0.86513,0.2499,0.000602,0.58,0.42,0
0.24398,0.0031507,0.42115,-0.9948,-0.72662,-0.83229,-0.01392,0,0,-0.28168,0.09643,0,-0.055698,0,0,0.83882,0.0034503,0,0.83882,-0.7242,-0.99722,-0.83229,-80.881,-0.85124,0.26226,0.00040331,0.6,0.42,0
0.23796,0.0026745,0.39878,-0.99461,-0.70806,-0.80988,-0.01013,0,0,-0.32019,0.091575,0,-0.041089,0,0,0.83886,-0.001145,0,0.83886,-0.70695,-0.99572,-0.80988,-84.353,-0.83752,0.27643,0.00015128,0.62,0.42,0
0.23117,0.0023402,0.37641,-0.99452,-0.68944,-0.7875,-0.0073212,0,0,-0.35884,0.086986,0,-0.03021,0,0,0.83878,-0.0042683,0,0.8388,-0.68893,-0.99504,-0.7875,-86.478,-0.82382,0.29183,-0.0001547,0.64,0.42,0
0.2236,0.0021192,0.35404,-0.99448,-0.67073,-0.76509,-0.0050865,0,0,-0.3976,0.082669,0,-0.021516,0,0,0.83862,-0.0064237,0,0.83865,-0.67049,-0.99471,-0.76509,-87.818,-0.8101,0.3081,-0.00051696,0.66,0.42,0
0.21526,0.0019943,0.33168,-0.99443,-0.65191,-0.74266,-0.0031604,0,0,-0.43639,0.078567,0,-0.013988,0,0,0.83839,-0.0079691,0,0.83843,-0.65181,-0.99452,-0.74266,-88.723,-0.79633,0.32501,-0.00093776,0.68,0.42,0
0.20615,0.0019555,0.30933,-0.99432,-0.63302,-0.7202,-0.0013423,0,0,-0.47514,0.074598,0,-0.0068534,0,0,0.83808,-0.0091838,0,0.83814,-0.633,-0.99435,-0.7202,-89.394,-0.78251,0.34238,-0.001419,0.7,0.42,0
0.19626,0.0019978,0.28699,-0.99409,-0.61412,-0.69771,0.00053556,0,0,-0.51374,0.070662,0,0.0005363,0,0,0.8377,-0.010308,0,0.83777,-0.61412,-0.9941,-0.69771,0.055776,-0.76864,0.36005,-0.0019617,0.72,0.42,0
0.1856,0.0021195,0.26465,-0.99369,-0.59526,-0.67518,0.0026294,0,0,-0.55209,0.066653,0,0.0087884,0,0,0.83722,-0.011573,0,0.83731,-0.59525,-0.99371,-0.67518,89.555,-0.75471,0.37788,-0.0025662,0.74,0.42,0
0.17417,0.002322,0.24233,-0.99306,-0.57651,-0.65262,0.0051025,0,0,-0.59009,0.062464,0,0.018539,0,0,0.83659,-0.013222,0,0.83671,-0.57643,-0.99313,-0.65262,89.054,-0.74073,0.39575,-0.0032315,0.76,0.42,0
0.162,0.0026095,0.22004,-0.99213,-0.55794,-0.63005,0.0081486,0,0,-0.62762,0.057992,0,0.030541,0,0,0.83576,-0.015545,0,0.83592,-0.55774,-0.99233,-0.63005,88.514,-0.72671,0.41355,-0.0039555,0.78,0.42,0
0.14907,0.002989,0.19776,-0.99089,-0.53962,-0.60747,0.012027,0,0,-0.66459,0.053161,0,0.045795,0,0,0.83463,-0.018924,0,0.83488,-0.53919,-0.99132,-0.60747,87.893,-0.71266,0.43123,-0.004736,0.8,0.42,0
0.13541,0.0034718,0.17552,-0.98938,-0.52165,-0.58495,0.017128,0,0,-0.70101,0.047958,0,0.065788,0,0,0.83313,-0.023902,0,0.83352,-0.52081,-0.99021,-0.58495,87.142,-0.69866,0.44885,-0.0055728,0.82,0.42,0
0.12103,0.004076,0.15333,-0.98789,-0.50414,-0.56261,0.02406,0,0,-0.73715,0.04252,0,0.092789,0,0,0.83119,-0.031347,0,0.83186,-0.50257,-0.98946,-0.56261,86.199,-0.68488,0.46673,-0.0064756,0.84,0.42,0
0.10593,0.0048253,0.13119,-0.98726,-0.48727,-0.54075,0.033972,0,0,-0.77395,0.03728,0,0.13096,0,0,0.82899,-0.042784,0,0.83023,-0.48431,-0.99021,-0.54075,84.962,-0.67176,0.48592,-0.0074844,0.86,0.42,0
0.090072,0.0057688,0.10912,-0.99082,-0.4724,-0.5208,0.048201,0,0,-0.81469,0.033212,0,0.18498,0,0,0.82709,-0.061384,0,0.82959,-0.46693,-0.9963,-0.5208,83.397,-0.66134,0.50895,-0.0087363,0.88,0.42,0
0.073338,0.0068561,0.08708,-1.0037,-0.45965,-0.50431,0.073925,0,0,-0.86557,0.031494,0,0.27833,0,0,0.83708,-0.094238,0,0.84258,-0.44835,-1.015,-0.50431,81.002,-0.65588,0.54385,-0.010667,0.9,0.42,0
0.055449,0.0085578,0.064471,-0.91622,-0.45222,-0.45888,0.11623,0,0,-0.81815,-0.0041795,0,0.42703,0,0,0.75097,-0.19755,0,0.77651,-0.42437,-0.94407,-0.45888,76.26,-0.60911,0.50363,-0.0076567,0.92,0.42,0
0.042138,0.0084185,0.047675,-1.0013,-0.45354,-0.48413,0.082884,0,0,-0.67231,0.039754,0,0.2155,0,0,0.82153,-0.13012,0,0.83079,-0.44128,-1.0136,-0.48413,81.581,-0.64632,0.5521,-0.0084681,0.94,0.42,0
0.028557,0.0085392,0.031609,-0.9835,-0.42075,-0.45289,0.052593,0,0,-0.6898,0.041774,0,0.13674,0,0,0.79805,-0.070245,0,0.80089,-0.41588,-0.98838,-0.45289,84.706,-0.61905,0.55492,-0.0086448,0.96,0.42,0
0.014546,0.0087491,0.015753,-0.97526,-0.39255,-0.4261,0.026194,0,0,-0.71391,0.043611,0,0.068105,0,0,0.79024,-0.031083,0,0.79072,-0.39137,-0.97644,-0.4261,87.431,-0.59797,0.5685,-0.0093178,0.98,0.42,0
0,0.0088361,0,-0.9535,-0.36,-0.39405,0.001673,0,0,-0.72728,0.044266,0,0.0043498,0,0,0.78763,1.7347e-17,0,0.78753,-0.35999,-0.9535,-0.39405,89.838,-0.56918,0.57724,-0.0097625,1,0.42,0
0,0.01415,1,-0.98096,-1.807,-1.8364,-0.0052426,0,0,1.112,0.038254,0,-0.013631,0,0,0.76519,1.2317e-16,0,0.76513,-0.98093,-1.807,-1.8364,-0.36364,-1.5414,0.84113,0.030439,0,0.44,0
0.022241,0.013877,0.9847,-0.9637,-1.7752,-1.8063,-0.013594,0,0,1.0955,0.040546,0,-0.035345,0,0,0.76607,0.024945,0,0.7664,-0.96347,-1.7754,-1.8063,-0.9595,-1.5151,0.82784,0.029001,0.02,0.44,0
0.043818,0.012975,0.96936,-0.96989,-1.7489,-1.785,-0.032312,0,0,1.0596,0.04689,0,-0.084011,0,0,0.76892,0.053296,0,0.77065,-0.96855,-1.7503,-1.785,-2.371,-1.5013,0.79966,0.026095,0.04,0.44,0
0.064627,0.011145,0.95394,-0.98344,-1.7236,-1.7661,-0.060705,0,0,1.0174,0.055172,0,-0.15783,0,0,0.77428,0.089985,0,0.77926,-0.9785,-1.7286,-1.7661,-4.6576,-1.491,0.7695,0.023214,0.06,0.44,0
0.084514,0.007994,0.93839,-1.0061,-1.7046,-1.7516,-0.13108,0,0,0.96909,0.061157,0,-0.34081,0,0,0.79355,0.14526,0,0.80584,-0.98235,-1.7283,-1.7516,-10.287,-1.4874,0.75788,0.022287,0.08,0.44,0
0.10339,0.00010933,0.9222,-0.94429,-1.388,-1.3913,-0.19683,0,0,0.7411,-0.036866,0,-0.72122,0,0,0.72092,0.20148,0,0.74852,-0.86899,-1.4633,-1.3913,-21.246,-1.2412,0.56676,0.011262,0.1,0.44,0
0.11618,-0.011501,0.90054,-0.96293,-1.2123,-1.328,-0.12763,0,0,0.63274,0.063447,0,-0.47197,0,0,0.79858,0.095808,0,0.80439,-0.89925,-1.2759,-1.328,-24.339,-1.1677,0.44393,0.0011126,0.12,0.44,0
0.1287,-0.016197,0.87961,-0.94615,-1.1797,-1.2975,-0.05965,0,0,0.60894,0.070015,0,-0.22867,0,0,0.78392,0.056483,0,0.78605,-0.9272,-1.1986,-1.2975,-16.85,-1.1411,0.38605,-0.00076535,0.14,0.44,0
0.14054,-0.018931,0.85874,-0.94225,-1.1516,-1.2722,-0.034104,0,0,0.5719,0.074491,0,-0.1322,0,0,0.78236,0.029691,0,0.78292,-0.93364,-1.1602,-1.2722,-13.727,-1.122,0.3612,-0.0011256,0.16,0.44,0
0.15158,-0.020312,0.83788,-0.94338,-1.1293,-1.2502,-0.016567,0,0,0.53186,0.076652,0,-0.065237,0,0,0.78216,0.0087615,0,0.78217,-0.94029,-1.1324,-1.2502,-10.605,-1.1077,0.33949,-0.0011748,0.18,0.44,0
0.16182,-0.020789,0.81702,-0.94442,-1.1091,-1.2288,-0.0033778,0,0,0.49299,0.076459,0,-0.014355,0,0,0.7826,-0.0094437,0,0.78263,-0.94422,-1.1093,-1.2288,-4.2107,-1.0941,0.3212,-0.0011059,0.2,0.44,0
0.1713,-0.02055,0.79614,-0.94497,-1.0907,-1.2078,0.0084067,0,0,0.45558,0.074099,0,0.031226,0,0,0.78336,-0.026694,0,0.78383,-0.93898,-1.0967,-1.2078,26.131,-1.0812,0.30524,-0.00097789,0.22,0.44,0
0.18004,-0.019663,0.77524,-0.94506,-1.0737,-1.1871,0.020532,0,0,0.41949,0.069783,0,0.078073,0,0,0.78455,-0.044343,0,0.7859,-0.92614,-1.0927,-1.1871,31.369,-1.0686,0.29161,-0.00081417,0.24,0.44,0
0.18807,-0.018098,0.7543,-0.94521,-1.0584,-1.1668,0.034714,0,0,0.3841,0.063769,0,0.13261,0,0,0.78653,-0.063767,0,0.78934,-0.91226,-1.0914,-1.1668,33.068,-1.0568,0.28087,-0.00061519,0.26,0.44,0
0.1954,-0.015723,0.73329,-0.94651,-1.0448,-1.1474,0.053619,0,0,0.34812,0.056447,0,0.20454,0,0,0.79023,-0.086796,0,0.79541,-0.89599,-1.0953,-1.1474,34.417,-1.0462,0.27534,-0.00035445,0.28,0.44,0
0.202,-0.012199,0.71215,-0.95468,-1.0361,-1.1314,0.080414,0,0,0.30623,0.048475,0,0.30526,0,0,0.79732,-0.11671,0,0.80649,-0.87935,-1.1114,-1.1314,36.133,-1.0407,0.27775,4.3978e-05,0.3,0.44,0
0.20765,-0.0071097,0.69077,-0.97862,-1.0318,-1.1212,0.1421,0,0,0.24715,0.040471,0,0.52591,0,0,0.82412,-0.16037,0,0.84032,-0.83907,-1.1714,-1.1212,39.118,-1.0439,0.33105,0.0012305,0.32,0.44,0
0.21189,0.003216,0.6682,-0.94336,-1.1327,-1.124,0.20793,0,0,0.2877,-0.050504,0,0.76148,0,0,0.754,-0.2794,0,0.8045,-0.80949,-1.2666,-1.124,32.91,-1.0667,0.40932,0.0027539,0.34,0.44,0
0.22068,0.0096613,0.65117,-1.0201,-1.3155,-1.3518,0.16338,0,0,0.43123,0.047291,0,0.42479,0,0,0.83508,-0.2469,0,0.86992,-0.94758,-1.388,-1.3518,23.946,-1.2291,0.42352,0.0038059,0.36,0.44,0
0.22914,0.012937,0.6348,-1.0046,-1.2759,-1.319,0.1128,0,0,0.40865,0.055933,0,0.29328,0,0,0.82074,-0.19088,0,0.84241,-0.96385,-1.3167,-1.319,19.871,-1.1998,0.35399,0.002278,0.38,0.44,0
0.23703,0.015518,0.61834,-1.0029,-1.2372,-1.2904,0.091597,0,0,0.37371,0.069154,0,0.23815,0,0,0.82847,-0.14962,0,0.84173,-0.97132,-1.2687,-1.2904,19.012,-1.1768,0.30878,0.0014871,0.4,0.44,0
0.24408,0.017577,0.60166,-1.0123,-1.1932,-1.2633,0.07218,0,0,0.32633,0.091127,0,0.18767,0,0,0.84201,-0.11041,0,0.84909,-0.98701,-1.2185,-1.2633,19.293,-1.1563,0.25683,0.00078147,0.42,0.44,0
0.25008,0.019134,0.58466,-1.029,-1.1437,-1.2365,0.048356,0,0,0.26971,0.12062,0,0.12572,0,0,0.85995,-0.067231,0,0.86242,-1.0113,-1.1613,-1.2365,20.07,-1.1364,0.19854,0.00021667,0.44,0.44,0
0.25487,0.020006,0.56726,-1.0522,-1.0935,-1.211,0.014802,0,0,0.20641,0.15268,0,0.038485,0,0,0.8848,-0.016489,0,0.88473,-1.0475,-1.0983,-1.211,17.807,-1.1189,0.14496,-9.4054e-05,0.46,0.44,0
0.25834,0.019812,0.54927,-1.0995,-1.0541,-1.1953,-0.027056,0,0,0.12456,0.18365,0,-0.070346,0,0,0.93348,0.045976,0,0.93442,-1.0415,-1.1121,-1.1953,-65.013,-1.1163,0.13341,-1.7148e-05,0.48,0.44,0
0.25986,0.018514,0.52992,-1.1404,-0.97191,-1.1636,-0.073395,0,0,0.030145,0.24923,0,-0.19083,0,0,1.0004,0.11429,0,1.0086,-0.94443,-1.1679,-1.1636,-69.472,-1.092,0.22137,0.00055649,0.5,0.44,0
0.25955,0.016035,0.50925,-1.1652,-0.83751,-1.1101,-0.062532,0,0,-0.071706,0.35433,0,-0.16258,0,0,1.061,0.05852,0,1.0624,-0.82598,-1.1768,-1.1101,-79.556,-1.0376,0.32264,0.0014797,0.52,0.44,0
0.25699,0.013752,0.48748,-1.2109,-0.80989,-1.0937,-0.042604,0,0,-0.15236,0.36899,0,-0.11077,0,0,1.0946,0.03256,0,1.0951,-0.80542,-1.2154,-1.0937,-84.002,-1.0382,0.3647,0.0015887,0.54,0.44,0
0.25345,0.012262,0.46547,-1.2173,-0.78135,-1.0651,-0.026954,0,0,-0.19795,0.36884,0,-0.070081,0,0,1.1042,0.017704,0,1.1044,-0.77969,-1.219,-1.0651,-86.476,-1.0213,0.38609,0.0014513,0.56,0.44,0
0.24907,0.011143,0.44331,-1.2211,-0.75802,-1.0371,-0.018467,0,0,-0.23926,0.36273,0,-0.048015,0,0,1.1096,0.0083976,0,1.1096,-0.75729,-1.2218,-1.0371,-87.72,-1.0054,0.4051,0.0011788,0.58,0.44,0
0.24388,0.010283,0.42108,-1.2242,-0.73681,-1.0094,-0.012858,0,0,-0.27922,0.35433,0,-0.03343,0,0,1.1128,0.002293,0,1.1128,-0.73647,-1.2245,-1.0094,-88.49,-0.99011,0.42363,0.00079382,0.6,0.44,0
0.2379,0.0096015,0.3988,-1.2271,-0.71662,-0.98192,-0.0089942,0,0,-0.31872,0.34488,0,-0.023385,0,0,1.1147,-0.0017999,0,1.1147,-0.71646,-1.2272,-0.98192,-88.991,-0.97521,0.44246,0.00030327,0.62,0.44,0
0.23113,0.0090584,0.3765,-1.2299,-0.6969,-0.95454,-0.0061601,0,0,-0.35799,0.33494,0,-0.016016,0,0,1.1158,-0.0045724,0,1.1158,-0.69683,-1.23,-0.95454,-89.338,-0.96045,0.46182,-0.00029127,0.64,0.44,0
0.22358,0.0086269,0.35417,-1.2326,-0.6774,-0.92718,-0.0039679,0,0,-0.39708,0.32471,0,-0.010317,0,0,1.1163,-0.006471,0,1.1164,-0.67737,-1.2327,-0.92718,-89.591,-0.94573,0.48169,-0.00099061,0.66,0.44,0
0.21525,0.0082903,0.33184,-1.2351,-0.65803,-0.89979,-0.0021534,0,0,-0.43595,0.31429,0,-0.0055988,0,0,1.1165,-0.0078123,0,1.1165,-0.65802,-1.2351,-0.89979,-89.786,-0.93099,0.50199,-0.0017958,0.68,0.44,0
0.20614,0.0080381,0.30951,-1.2374,-0.63879,-0.87237,-0.0005201,0,0,-0.47454,0.30365,0,-0.0013523,0,0,1.1163,-0.0088416,0,1.1163,-0.63879,-1.2374,-0.87237,-89.95,-0.91618,0.52256,-0.002707,0.7,0.44,0
0.19627,0.0078638,0.28719,-1.2393,-0.61969,-0.84488,0.0010935,0,0,-0.51274,0.29276,0,0.002843,0,0,1.1158,-0.0097681,0,1.1158,-0.61968,-1.2393,-0.84488,89.899,-0.90129,0.54323,-0.0037226,0.72,0.44,0
0.18563,0.0077644,0.26488,-1.2407,-0.60077,-0.81733,0.0028325,0,0,-0.55042,0.28153,0,0.0073645,0,0,1.1149,-0.010789,0,1.115,-0.60076,-1.2408,-0.81733,89.746,-0.88628,0.56381,-0.0048383,0.74,0.44,0
0.17425,0.007739,0.24259,-1.2416,-0.58212,-0.7897,0.0048431,0,0,-0.58742,0.26985,0,0.012592,0,0,1.1136,-0.012114,0,1.1136,-0.58208,-1.2416,-0.7897,89.579,-0.87113,0.58407,-0.0060458,0.76,0.44,0
0.16214,0.0077893,0.22034,-1.2416,-0.56383,-0.76197,0.0072956,0,0,-0.62352,0.25757,0,0.018969,0,0,1.1116,-0.013987,0,1.1117,-0.56376,-1.2417,-0.76197,89.383,-0.8558,0.60373,-0.0073317,0.78,0.44,0
0.14931,0.0079194,0.19813,-1.2406,-0.54605,-0.73411,0.010424,0,0,-0.65839,0.24448,0,0.027101,0,0,1.1089,-0.01673,0,1.109,-0.5459,-1.2407,-0.73411,89.14,-0.84025,0.62244,-0.0086745,0.8,0.44,0
0.1358,0.0081371,0.17598,-1.2381,-0.52899,-0.7061,0.014587,0,0,-0.69157,0.23025,0,0.037925,0,0,1.1049,-0.02081,0,1.1051,-0.52868,-1.2384,-0.7061,88.822,-0.82439,0.63972,-0.01004,0.82,0.44,0
0.12165,0.0084551,0.15393,-1.2335,-0.51292,-0.67785,0.020411,0,0,-0.72231,0.21441,0,0.05307,0,0,1.099,-0.02698,0,1.0994,-0.51234,-1.2341,-0.67785,88.379,-0.80808,0.65483,-0.011375,0.84,0.44,0
0.10691,0.0088966,0.13202,-1.2252,-0.49813,-0.64903,0.028812,0,0,-0.74907,0.19617,0,0.07491,0,0,1.0902,-0.036608,0,1.0908,-0.49699,-1.2264,-0.64903,87.734,-0.7908,0.66651,-0.01258,0.86,0.44,0
0.091683,0.009474,0.11032,-1.2093,-0.48473,-0.61854,0.041828,0,0,-0.76802,0.17396,0,0.10875,0,0,1.0764,-0.052524,0,1.0777,-0.48232,-1.2117,-0.61854,86.707,-0.77086,0.67174,-0.013435,0.88,0.44,0
0.076186,0.010241,0.088964,-1.1632,-0.46587,-0.57769,0.055121,0,0,-0.7612,0.14538,0,0.14331,0,0,1.0378,-0.081614,0,1.0408,-0.46154,-1.1676,-0.57769,85.508,-0.7356,0.65571,-0.012961,0.9,0.44,0
0.061235,0.010363,0.06881,-1.1326,-0.47793,-0.55196,0.070714,0,0,-0.75479,0.096234,0,0.18386,0,0,0.97107,-0.14695,0,0.98407,-0.47038,-1.1401,-0.55196,83.904,-0.72082,0.6329,-0.012294,0.92,0.44,0
0.045995,0.0098921,0.050121,-1.0917,-0.43818,-0.50908,0.051716,0,0,-0.75738,0.092173,0,0.13446,0,0,0.89753,-0.095077,0,0.90267,-0.43411,-1.0958,-0.50908,85.503,-0.67965,0.62752,-0.012083,0.94,0.44,0
0.03094,0.009938,0.032909,-1.0519,-0.40157,-0.46895,0.038174,0,0,-0.75783,0.087591,0,0.099253,0,0,0.84495,-0.051481,0,0.84648,-0.39934,-1.0541,-0.46895,86.652,-0.64081,0.62291,-0.011893,0.96,0.44,0
0.015682,0.010094,0.016323,-1.0329,-0.37241,-0.43792,0.019976,0,0,-0.7735,0.085166,0,0.051937,0,0,0.82273,-0.022309,0,0.82298,-0.3718,-1.0335,-0.43792,88.269,-0.61442,0.63126,-0.012443,0.98,0.44,0
0,0.010175,0,-1.0067,-0.33854,-0.40358,0.0015606,0,0,-0.78408,0.084547,0,0.0040576,0,0,0.81615,1.7347e-18,0,0.8161,-0.33853,-1.0067,-0.40358,89.866,-0.58294,0.63815,-0.012881,1,0.44,0
0,0.015024,1,-0.98005,-1.7979,-1.8334,-0.0039584,0,0,1.1093,0.04615,0,-0.010292,0,0,0.78928,-8.2139e-16,0,0.78923,-0.98003,-1.7979,-1.8334,-0.27731,-1.5371,0.83617,0.029845,0,0.46,0
0.022187,0.014818,0.98421,-0.96249,-1.7632,-1.8019,-0.0089448,0,0,1.0913,0.050365,0,-0.023256,0,0,0.79183,0.021732,0,0.79207,-0.96239,-1.7633,-1.8019,-0.63997,-1.5092,0.82089,0.028198,0.02,0.46,0
0.04365,0.014097,0.96833,-0.9694,-1.7298,-1.7781,-0.02253,0,0,1.0513,0.062784,0,-0.058579,0,0,0.80024,0.046234,0,0.80151,-0.96874,-1.7305,-1.7781,-1.6957,-1.4924,0.78662,0.024689,0.04,0.46,0
0.064238,0.012609,0.9522,-0.97935,-1.6882,-1.7525,-0.047727,0,0,1.005,0.08357,0,-0.12409,0,0,0.81859,0.076747,0,0.8221,-0.97615,-1.6914,-1.7525,-3.8348,-1.4733,0.74764,0.020981,0.06,0.46,0
0.083852,0.0096158,0.93558,-1.0192,-1.6493,-1.7361,-0.089877,0,0,0.93197,0.11294,0,-0.23368,0,0,0.86269,0.11796,0,0.87075,-1.0067,-1.6618,-1.7361,-7.9621,-1.4682,0.6953,0.016601,0.08,0.46,0
0.10152,0.0044893,0.9177,-1.0567,-1.5105,-1.6879,-0.13756,0,0,0.82047,0.2306,0,-0.35767,0,0,0.92519,0.1623,0,0.94084,-1.0183,-1.5489,-1.6879,-15.615,-1.4183,0.61206,0.0097612,0.1,0.46,0
0.11667,-0.0020064,0.89858,-1.0709,-1.2752,-1.6024,-0.11064,0,0,0.69094,0.42541,0,-0.28768,0,0,0.98104,0.09067,0,0.98484,-1.0225,-1.3236,-1.6024,-23.646,-1.3161,0.50237,0.00043434,0.12,0.46,0
0.12915,-0.0067507,0.87846,-1.1191,-1.2293,-1.583,-0.066146,0,0,0.60309,0.45975,0,-0.17198,0,0,1.0109,0.053033,0,1.0122,-1.0881,-1.2603,-1.583,-25.096,-1.3104,0.43514,-0.0021074,0.14,0.46,0
0.14079,-0.009365,0.85814,-1.1163,-1.1875,-1.5493,-0.034587,0,0,0.56284,0.47036,0,-0.089925,0,0,1.0187,0.027293,0,1.019,-1.1023,-1.2015,-1.5493,-22.098,-1.2844,0.40657,-0.0027708,0.16,0.46,0
0.15167,-0.010806,0.83771,-1.1156,-1.1576,-1.5197,-0.016371,0,0,0.52533,0.47066,0,-0.042565,0,0,1.0231,0.0070682,0,1.0231,-1.1099,-1.1632,-1.5197,-18.953,-1.2643,0.38584,-0.0027614,0.18,0.46,0
0.16181,-0.0114,0.81721,-1.116,-1.1339,-1.4922,-0.002857,0,0,0.48908,0.46574,0,-0.0074283,0,0,1.0256,-0.010585,0,1.0256,-1.1155,-1.1344,-1.4922,-8.8238,-1.2473,0.3676,-0.0025286,0.2,0.46,0
0.17123,-0.011334,0.79668,-1.117,-1.1145,-1.4661,0.0088899,0,0,0.45387,0.45715,0,0.023114,0,0,1.0269,-0.027441,0,1.0272,-1.1067,-1.1247,-1.4661,49.036,-1.2325,0.35074,-0.0021965,0.22,0.46,0
0.17996,-0.010669,0.77614,-1.1184,-1.0986,-1.4412,0.021073,0,0,0.41972,0.44543,0,0.05479,0,0,1.0272,-0.044912,0,1.0281,-1.0852,-1.1318,-1.4412,57.57,-1.2194,0.33518,-0.0018089,0.24,0.46,0
0.18802,-0.0093748,0.7556,-1.1203,-1.0866,-1.4177,0.035862,0,0,0.38658,0.43035,0,0.093242,0,0,1.0268,-0.064488,0,1.0288,-1.0639,-1.1431,-1.4177,57.573,-1.2082,0.32161,-0.0013652,0.26,0.46,0
0.19543,-0.007311,0.73507,-1.1231,-1.0799,-1.396,0.056024,0,0,0.35471,0.4109,0,0.14566,0,0,1.0256,-0.0882,0,1.0293,-1.0415,-1.1616,-1.396,55.547,-1.1997,0.31229,-0.00082057,0.28,0.46,0
0.20221,-0.0042322,0.71457,-1.1263,-1.0822,-1.3771,0.088705,0,0,0.32605,0.38343,0,0.23063,0,0,1.0235,-0.11952,0,1.0303,-1.0128,-1.1957,-1.3771,51.986,-1.1952,0.31548,1.0372e-05,0.3,0.46,0
0.20847,0.00056699,0.69413,-1.0835,-1.0849,-1.3446,0.13168,0,0,0.33952,0.33768,0,0.34236,0,0,1.0006,-0.16603,0,1.0137,-0.95249,-1.2159,-1.3446,44.846,-1.171,0.3462,0.00118,0.32,0.46,0
0.21579,0.0064462,0.67455,-1.0739,-1.2357,-1.3674,0.16321,0,0,0.38153,0.1713,0,0.42435,0,0,0.95169,-0.25627,0,0.98678,-0.97266,-1.3369,-1.3674,31.823,-1.2257,0.38044,0.002767,0.34,0.46,0
0.22373,0.011062,0.65606,-1.0434,-1.2814,-1.3535,0.13298,0,0,0.40309,0.093734,0,0.34576,0,0,0.89707,-0.22569,0,0.92505,-0.98399,-1.3409,-1.3535,24.09,-1.2261,0.36337,0.0024542,0.36,0.46,0
0.23191,0.014452,0.63867,-1.0174,-1.256,-1.3207,0.11126,0,0,0.39429,0.084062,0,0.28926,0,0,0.86517,-0.19173,0,0.88605,-0.97357,-1.2998,-1.3207,21.499,-1.198,0.33718,0.0019435,0.38,0.46,0
0.2395,0.017176,0.62145,-1.0218,-1.2269,-1.2961,0.099821,0,0,0.35656,0.089906,0,0.25953,0,0,0.86589,-0.16237,0,0.88091,-0.98123,-1.2675,-1.2961,22.112,-1.1816,0.30155,0.0013657,0.4,0.46,0
0.24618,0.019701,0.60403,-1.035,-1.1789,-1.2682,0.090656,0,0,0.30316,0.11607,0,0.2357,0,0,0.88149,-0.12975,0,0.89094,-0.99123,-1.2227,-1.2682,25.779,-1.1607,0.25727,0.00078319,0.42,0.46,0
0.25163,0.021941,0.5862,-1.0554,-1.1164,-1.2377,0.072233,0,0,0.23705,0.15774,0,0.1878,0,0,0.90484,-0.089644,0,0.90919,-1.0075,-1.1643,-1.2377,33.552,-1.1365,0.20372,0.00025172,0.44,0.46,0
0.25566,0.023536,0.56784,-1.0832,-1.0563,-1.2097,0.04335,0,0,0.16448,0.19939,0,0.11271,0,0,0.93483,-0.044102,0,0.93581,-1.0243,-1.1151,-1.2097,53.606,-1.1164,0.16051,-7.542e-06,0.46,0.46,0
0.25821,0.024187,0.5488,-1.112,-0.99874,-1.182,0.0087003,0,0,0.091022,0.23828,0,0.022621,0,0,0.97176,0.00086595,0,0.97191,-0.99807,-1.1127,-1.182,85.633,-1.0976,0.16091,8.7877e-05,0.48,0.46,0
0.2593,0.02377,0.52897,-1.1443,-0.94317,-1.1552,-0.018431,0,0,0.014164,0.27565,0,-0.047922,0,0,1.013,0.025305,0,1.0135,-0.9415,-1.146,-1.1552,-84.807,-1.0809,0.20926,0.00046753,0.5,0.46,0
0.25877,0.022499,0.50828,-1.1698,-0.87394,-1.1214,-0.032524,0,0,-0.062893,0.32169,0,-0.084564,0,0,1.0506,0.029815,0,1.0512,-0.87041,-1.1733,-1.1214,-83.799,-1.055,0.28057,0.0010047,0.52,0.46,0
0.25678,0.020949,0.48694,-1.1915,-0.82016,-1.0904,-0.027804,0,0,-0.13141,0.35137,0,-0.07229,0,0,1.0778,0.018528,0,1.078,-0.81809,-1.1936,-1.0904,-85.742,-1.034,0.33603,0.0013475,0.54,0.46,0
0.25352,0.019517,0.46517,-1.2089,-0.78941,-1.0647,-0.01974,0,0,-0.18748,0.35782,0,-0.051323,0,0,1.094,0.0097636,0,1.094,-0.78849,-1.2098,-1.0647,-87.312,-1.021,0.3707,0.0013294,0.56,0.46,0
0.24928,0.018328,0.44318,-1.2168,-0.76356,-1.0373,-0.012829,0,0,-0.23339,0.35586,0,-0.033355,0,0,1.1028,0.0035477,0,1.1028,-0.76319,-1.2172,-1.0373,-88.38,-1.0059,0.39598,0.0011166,0.58,0.46,0
0.24418,0.017324,0.42106,-1.2222,-0.74078,-1.01,-0.007975,0,0,-0.27593,0.34992,0,-0.020735,0,0,1.1082,-0.00075569,0,1.1082,-0.74065,-1.2223,-1.01,-89.051,-0.99099,0.41813,0.00076188,0.6,0.46,0
0.23825,0.01647,0.39885,-1.2265,-0.71951,-0.98264,-0.0044733,0,0,-0.31696,0.34207,0,-0.011631,0,0,1.1116,-0.0037004,0,1.1116,-0.71947,-1.2265,-0.98264,-89.495,-0.9762,0.4392,0.00028688,0.62,0.46,0
0.2315,0.015738,0.37659,-1.2301,-0.69906,-0.95534,-0.0019267,0,0,-0.35718,0.33316,0,-0.0050094,0,0,1.1137,-0.0056902,0,1.1137,-0.69906,-1.2301,-0.95534,-89.792,-0.9615,0.45999,-0.00030097,0.64,0.46,0
0.22396,0.015108,0.3543,-1.2333,-0.67909,-0.92801,-2.3817e-05,0,0,-0.39683,0.32359,0,-6.1923e-05,0,0,1.1149,-0.0070196,0,1.1149,-0.67909,-1.2333,-0.92801,-89.998,-0.94679,0.48075,-0.00099847,0.66,0.46,0
0.21563,0.014566,0.332,-1.236,-0.65945,-0.90063,0.0014589,0,0,-0.43597,0.31353,0,0.003793,0,0,1.1155,-0.0079111,0,1.1155,-0.65945,-1.236,-0.90063,89.855,-0.93202,0.50152,-0.0018035,0.68,0.46,0
0.20652,0.014102,0.30968,-1.2382,-0.64009,-0.87318,0.0026941,0,0,-0.47457,0.30302,0,0.0070048,0,0,1.1155,-0.008543,0,1.1155,-0.64007,-1.2383,-0.87318,89.742,-0.91717,0.52222,-0.0027135,0.7,0.46,0
0.19665,0.013708,0.28738,-1.2399,-0.62099,-0.84566,0.0038193,0,0,-0.51256,0.29206,0,0.0099302,0,0,1.115,-0.0090676,0,1.115,-0.62097,-1.24,-0.84566,89.647,-0.90219,0.54273,-0.0037237,0.72,0.46,0
0.18602,0.013381,0.26509,-1.241,-0.6022,-0.81803,0.0049476,0,0,-0.54981,0.28059,0,0.012864,0,0,1.1139,-0.0096269,0,1.114,-0.60216,-1.241,-0.81803,89.556,-0.88706,0.56286,-0.0048265,0.74,0.46,0
0.17465,0.013116,0.24282,-1.2412,-0.58378,-0.7903,0.0061776,0,0,-0.58611,0.26848,0,0.016062,0,0,1.1123,-0.010366,0,1.1123,-0.58372,-1.2412,-0.7903,89.462,-0.87174,0.58237,-0.0060094,0.76,0.46,0
0.16257,0.012912,0.2206,-1.2403,-0.56584,-0.76242,0.0076039,0,0,-0.62118,0.25556,0,0.01977,0,0,1.1097,-0.011447,0,1.1098,-0.56575,-1.2403,-0.76242,89.354,-0.85617,0.60089,-0.0072521,0.78,0.46,0
0.14981,0.012768,0.19843,-1.2378,-0.54856,-0.73434,0.0093301,0,0,-0.65451,0.24152,0,0.024258,0,0,1.106,-0.013071,0,1.1061,-0.54843,-1.2379,-0.73434,89.225,-0.84024,0.6179,-0.0085211,0.8,0.46,0
0.13639,0.012682,0.17635,-1.2331,-0.5322,-0.70595,0.01149,0,0,-0.68534,0.22589,0,0.029873,0,0,1.1006,-0.015509,0,1.1007,-0.53201,-1.2333,-0.70595,89.061,-0.82376,0.63254,-0.0097605,0.82,0.46,0
0.12239,0.012652,0.15441,-1.2249,-0.51715,-0.67702,0.014229,0,0,-0.71225,0.20784,0,0.036995,0,0,1.0924,-0.019158,0,1.0926,-0.51686,-1.2252,-0.67702,88.849,-0.80636,0.64338,-0.010873,0.84,0.46,0
0.1079,0.012672,0.13266,-1.2109,-0.50402,-0.64713,0.01771,0,0,-0.73288,0.18603,0,0.046045,0,0,1.0798,-0.024642,0,1.0801,-0.50358,-1.2113,-0.64713,88.566,-0.78734,0.648,-0.011697,0.86,0.46,0
0.093078,0.012727,0.11122,-1.1867,-0.49302,-0.61513,0.02088,0,0,-0.74304,0.15874,0,0.054289,0,0,1.0578,-0.032926,0,1.0583,-0.4924,-1.1873,-0.61513,88.277,-0.76495,0.64242,-0.011959,0.88,0.46,0
0.078182,0.012671,0.090345,-1.1617,-0.49118,-0.58621,0.022087,0,0,-0.74815,0.12355,0,0.057427,0,0,1.0217,-0.04522,0,1.023,-0.49045,-1.1624,-0.58621,88.115,-0.74637,0.6296,-0.011824,0.9,0.46,0
0.063152,0.012407,0.070349,-1.1326,-0.46969,-0.55103,0.018042,0,0,-0.75602,0.10574,0,0.046911,0,0,0.97168,-0.046825,0,0.97327,-0.4692,-1.1331,-0.55103,88.442,-0.71777,0.62697,-0.011934,0.92,0.46,0
0.047941,0.012105,0.051478,-1.1021,-0.42395,-0.5093,0.018599,0,0,-0.77068,0.11096,0,0.048356,0,0,0.917,-0.037359,0,0.91824,-0.42344,-1.1026,-0.5093,88.43,-0.67846,0.64061,-0.012688,0.94,0.46,0
0.032325,0.012043,0.033669,-1.0815,-0.38847,-0.47465,0.016559,0,0,-0.78888,0.11204,0,0.043054,0,0,0.87082,-0.018895,0,0.8712,-0.38807,-1.0819,-0.47465,88.632,-0.6482,0.65482,-0.013575,0.96,0.46,0
0.016386,0.012156,0.016645,-1.0652,-0.3578,-0.44353,0.0094888,0,0,-0.80811,0.11145,0,0.024671,0,0,0.84172,-0.006764,0,0.84178,-0.35767,-1.0653,-0.44353,89.232,-0.62216,0.66883,-0.014516,0.98,0.46,0
0,0.012218,0,-1.0393,-0.32438,-0.40912,0.0011968,0,0,-0.81929,0.11016,0,0.0031116,0,0,0.83225,-1.2035e-17,0,0.83223,-0.32438,-1.0393,-0.40912,89.904,-0.59094,0.67658,-0.015069,1,0.46,0
0,0.015996,1,-0.97563,-1.794,-1.8309,-0.0020002,0,0,1.1118,0.047949,0,-0.0052005,0,0,0.80866,-2.2196e-15,0,0.80863,-0.97563,-1.794,-1.8309,-0.14003,-1.5335,0.83744,0.029966,0,0.48,0
0.022237,0.015892,0.98383,-0.95814,-1.7565,-1.7982,-0.0032272,0,0,1.0921,0.054221,0,-0.0083906,0,0,0.81231,0.015885,0,0.81244,-0.95813,-1.7565,-1.7982,-0.23159,-1.5043,0.82004,0.028076,0.02,0.48,0
0.043684,0.015487,0.96751,-0.96617,-1.7158,-1.7721,-0.011548,0,0,1.0477,0.073214,0,-0.030026,0,0,0.82394,0.033496,0,0.82461,-0.96599,-1.716,-1.7721,-0.88241,-1.4847,0.77955,0.023905,0.04,0.48,0
0.064145,0.014488,0.95087,-0.98381,-1.6646,-1.7454,-0.029104,0,0,0.99005,0.10504,0,-0.07567,0,0,0.84601,0.053784,0,0.84777,-0.98257,-1.6658,-1.7454,-2.4435,-1.4646,0.72632,0.018885,0.06,0.48,0
0.083286,0.012512,0.93367,-1.0113,-1.5912,-1.7144,-0.057124,0,0,0.91402,0.16018,0,-0.14852,0,0,0.8791,0.073961,0,0.88245,-1.0058,-1.5968,-1.7144,-5.5728,-1.439,0.65779,0.013056,0.08,0.48,0
0.10071,0.0093335,0.9157,-1.0465,-1.4813,-1.6741,-0.079969,0,0,0.81579,0.25055,0,-0.20792,0,0,0.91876,0.077399,0,0.92227,-1.0323,-1.4956,-1.6741,-10.098,-1.4006,0.57374,0.0066293,0.1,0.48,0
0.11592,0.0055154,0.89692,-1.075,-1.3438,-1.6226,-0.08033,0,0,0.71183,0.36237,0,-0.20886,0,0,0.95552,0.064971,0,0.95785,-1.0528,-1.366,-1.6226,-15.432,-1.3471,0.49422,0.0010604,0.12,0.48,0
0.12918,0.0021931,0.87748,-1.1016,-1.2532,-1.5839,-0.055926,0,0,0.62706,0.42989,0,-0.14541,0,0,0.98185,0.040396,0,0.98267,-1.0832,-1.2716,-1.5839,-18.204,-1.3129,0.43806,-0.001782,0.14,0.48,0
0.141,-0.00011705,0.85764,-1.1177,-1.2061,-1.5548,-0.032397,0,0,0.56823,0.45329,0,-0.084233,0,0,0.99718,0.020194,0,0.99736,-1.1071,-1.2167,-1.5548,-18.117,-1.2928,0.4042,-0.0025693,0.16,0.48,0
0.15191,-0.0014857,0.8376,-1.1204,-1.1715,-1.5252,-0.014647,0,0,0.5262,0.45979,0,-0.038081,0,0,1.005,0.0030363,0,1.005,-1.1165,-1.1754,-1.5252,-14.915,-1.2723,0.38264,-0.0026491,0.18,0.48,0
0.16205,-0.0021601,0.81744,-1.1208,-1.1457,-1.4974,-0.0012731,0,0,0.48951,0.45726,0,-0.0033101,0,0,1.009,-0.012531,0,1.009,-1.1208,-1.1457,-1.4974,-2.9293,-1.2546,0.36478,-0.0024537,0.2,0.48,0
0.17149,-0.0022636,0.79724,-1.1207,-1.1258,-1.4712,0.0105,0,0,0.45559,0.44906,0,0.027301,0,0,1.0102,-0.027741,0,1.0105,-1.1124,-1.134,-1.4712,38.27,-1.2392,0.34845,-0.0021447,0.22,0.48,0
0.18027,-0.0018461,0.77704,-1.1203,-1.111,-1.4464,0.022599,0,0,0.42393,0.43607,0,0.058757,0,0,1.009,-0.043739,0,1.0099,-1.0926,-1.1387,-1.4464,50.836,-1.2259,0.33318,-0.0017773,0.24,0.48,0
0.18845,-0.00088448,0.75688,-1.119,-1.102,-1.4232,0.036977,0,0,0.3954,0.41758,0,0.096141,0,0,1.0054,-0.061806,0,1.0073,-1.0725,-1.1484,-1.4232,51.494,-1.2147,0.31952,-0.001362,0.26,0.48,0
0.19609,0.00071312,0.73682,-1.115,-1.1008,-1.4016,0.056287,0,0,0.37252,0.39099,0,0.14635,0,0,0.99861,-0.083602,0,1.0021,-1.0512,-1.1646,-1.4016,48.596,-1.2058,0.30966,-0.00086371,0.28,0.48,0
0.20335,0.0031385,0.71693,-1.0992,-1.1098,-1.3796,0.081562,0,0,0.36453,0.35082,0,0.21206,0,0,0.98527,-0.11135,0,0.99147,-1.0228,-1.1862,-1.3796,43.151,-1.1962,0.30942,-0.00022014,0.3,0.48,0
0.21067,0.0063974,0.69741,-1.0776,-1.1524,-1.3664,0.10849,0,0,0.37544,0.27823,0,0.28207,0,0,0.96208,-0.14774,0,0.9734,-1.0003,-1.2297,-1.3664,35.492,-1.1988,0.32048,0.00071407,0.32,0.48,0
0.21837,0.010068,0.67845,-1.0566,-1.2193,-1.3612,0.1167,0,0,0.39598,0.18452,0,0.30343,0,0,0.93029,-0.17557,0,0.94687,-0.99571,-1.2802,-1.3612,27.563,-1.2124,0.33249,0.0015167,0.34,0.48,0
0.22651,0.013411,0.6602,-1.0332,-1.2503,-1.3452,0.11278,0,0,0.40569,0.12341,0,0.29322,0,0,0.89962,-0.18978,0,0.91955,-0.9852,-1.2983,-1.3452,23.044,-1.2096,0.33901,0.0018723,0.36,0.48,0
0.23459,0.0163,0.64247,-1.0248,-1.2531,-1.3258,0.10847,0,0,0.39132,0.09457,0,0.28202,0,0,0.88406,-0.18737,0,0.90368,-0.9815,-1.2964,-1.3258,21.771,-1.2012,0.33061,0.0018065,0.38,0.48,0
0.24216,0.019114,0.62484,-1.0304,-1.2287,-1.3026,0.11323,0,0,0.35385,0.096013,0,0.29441,0,0,0.89045,-0.18125,0,0.90875,-0.97901,-1.28,-1.3026,24.394,-1.1872,0.3129,0.001546,0.4,0.48,0
0.24875,0.022219,0.60685,-1.0527,-1.1769,-1.2757,0.11596,0,0,0.28996,0.1285,0,0.30148,0,0,0.91474,-0.15793,0,0.92833,-0.98323,-1.2463,-1.2757,30.915,-1.1684,0.27894,0.0010731,0.42,0.48,0
0.25376,0.025444,0.58825,-1.0754,-1.0862,-1.2367,0.10374,0,0,0.20972,0.19569,0,0.26973,0,0,0.9456,-0.11955,0,0.95312,-0.97691,-1.1847,-1.2367,43.511,-1.1328,0.23809,0.0005831,0.44,0.48,0
0.25714,0.027981,0.56903,-1.103,-1.0135,-1.204,0.069543,0,0,0.13126,0.24765,0,0.18081,0,0,0.97531,-0.071688,0,0.97786,-0.97552,-1.1409,-1.204,61.384,-1.1068,0.20435,0.0003018,0.46,0.48,0
0.25901,0.029343,0.54923,-1.1304,-0.96664,-1.1784,0.035487,0,0,0.062283,0.27524,0,0.092267,0,0,1.0029,-0.035059,0,1.0035,-0.95928,-1.1378,-1.1784,78.287,-1.0918,0.20188,0.00036576,0.48,0.48,0
0.25963,0.02954,0.52891,-1.1505,-0.91974,-1.15,0.0089884,0,0,-0.00067006,0.29931,0,0.02337,0,0,1.0294,-0.011307,0,1.0295,-0.91939,-1.1508,-1.15,87.773,-1.0734,0.23102,0.00063323,0.5,0.48,0
0.25898,0.028902,0.50806,-1.1694,-0.87164,-1.1204,-0.0055988,0,0,-0.063737,0.32334,0,-0.014557,0,0,1.0542,-0.00066379,0,1.0543,-0.87154,-1.1695,-1.1204,-88.923,-1.0538,0.27669,0.0009733,0.52,0.48,0
0.25708,0.027807,0.48674,-1.1871,-0.82904,-1.0916,-0.010171,0,0,-0.12413,0.34129,0,-0.026444,0,0,1.0745,0.001282,0,1.0746,-0.82876,-1.1873,-1.0916,-88.374,-1.0359,0.32158,0.0012112,0.54,0.48,0
0.25402,0.026575,0.46508,-1.2015,-0.79493,-1.064,-0.0082677,0,0,-0.17874,0.3498,0,-0.021496,0,0,1.0893,-0.00075885,0,1.0893,-0.79476,-1.2017,-1.064,-88.835,-1.0201,0.35848,0.0012442,0.56,0.48,0
0.24993,0.025378,0.44317,-1.2125,-0.76793,-1.0373,-0.004744,0,0,-0.22773,0.35017,0,-0.012334,0,0,1.0991,-0.0031511,0,1.0991,-0.76788,-1.2125,-1.0373,-89.389,-1.0059,0.38793,0.0010705,0.58,0.48,0
0.24491,0.02428,0.42111,-1.2201,-0.744,-1.0103,-0.0014477,0,0,-0.27266,0.34623,0,-0.003764,0,0,1.1055,-0.0051114,0,1.1055,-0.744,-1.2201,-1.0103,-89.826,-0.99147,0.41327,0.00073998,0.6,0.48,0
0.23902,0.023284,0.39895,-1.2259,-0.72187,-0.98328,0.001104,0,0,-0.31541,0.33984,0,0.0028705,0,0,1.1097,-0.0065209,0,1.1098,-0.72187,-1.2259,-0.98328,89.874,-0.97702,0.43662,0.00027578,0.62,0.48,0
0.23229,0.022385,0.37672,-1.2306,-0.70078,-0.95613,0.0029713,0,0,-0.35679,0.33196,0,0.0077253,0,0,1.1125,-0.007446,0,1.1125,-0.70076,-1.2306,-0.95613,89.679,-0.9625,0.45895,-0.00030973,0.64,0.48,0
0.22475,0.02157,0.35445,-1.2344,-0.68036,-0.92888,0.0042936,0,0,-0.39717,0.32308,0,0.011163,0,0,1.1141,-0.0079917,0,1.1141,-0.68032,-1.2344,-0.92888,89.556,-0.94788,0.48071,-0.0010099,0.66,0.48,0
0.21641,0.020831,0.33216,-1.2375,-0.66042,-0.90153,0.0052193,0,0,-0.43674,0.31344,0,0.01357,0,0,1.115,-0.0082617,0,1.115,-0.66037,-1.2375,-0.90153,89.482,-0.93314,0.50207,-0.00182,0.68,0.48,0
0.20728,0.020159,0.30985,-1.2399,-0.64088,-0.87408,0.0058711,0,0,-0.47553,0.30316,0,0.015265,0,0,1.1152,-0.0083482,0,1.1152,-0.64082,-1.2399,-0.87408,89.439,-0.91827,0.52306,-0.0027349,0.7,0.48,0
0.19739,0.019546,0.28755,-1.2415,-0.6217,-0.84652,0.0063431,0,0,-0.51352,0.29227,0,0.016492,0,0,1.1147,-0.0083333,0,1.1147,-0.62163,-1.2416,-0.84652,89.414,-0.90325,0.54361,-0.0037481,0.72,0.48,0
0.18674,0.018988,0.26526,-1.2424,-0.60289,-0.81885,0.0066996,0,0,-0.55061,0.28075,0,0.017419,0,0,1.1136,-0.0082904,0,1.1136,-0.60282,-1.2425,-0.81885,89.4,-0.88805,0.56359,-0.0048501,0.74,0.48,0
0.17536,0.018478,0.24301,-1.2423,-0.58452,-0.79105,0.0069737,0,0,-0.58662,0.2685,0,0.018132,0,0,1.1118,-0.0082868,0,1.1118,-0.58444,-1.2424,-0.79105,89.393,-0.87262,0.58278,-0.0060265,0.76,0.48,0
0.16327,0.018012,0.22079,-1.241,-0.56666,-0.76309,0.0071595,0,0,-0.62127,0.25536,0,0.018615,0,0,1.1089,-0.0083841,0,1.109,-0.56658,-1.2411,-0.76309,89.392,-0.85691,0.60083,-0.0072554,0.78,0.48,0
0.15051,0.01758,0.19865,-1.2381,-0.54947,-0.73491,0.0071926,0,0,-0.65409,0.24107,0,0.018701,0,0,1.1048,-0.0086344,0,1.1048,-0.54939,-1.2381,-0.73491,89.402,-0.84081,0.61725,-0.008502,0.8,0.48,0
0.13711,0.017173,0.1766,-1.2328,-0.53318,-0.70641,0.006902,0,0,-0.68435,0.22519,0,0.017945,0,0,1.0988,-0.0090641,0,1.0988,-0.53312,-1.2329,-0.70641,89.435,-0.82414,0.63124,-0.009711,0.82,0.48,0
0.12314,0.016769,0.1547,-1.2243,-0.51818,-0.67744,0.0059283,0,0,-0.7109,0.20704,0,0.015413,0,0,1.0899,-0.0096238,0,1.09,-0.51813,-1.2243,-0.67744,89.519,-0.80663,0.64156,-0.010795,0.84,0.48,0
0.10867,0.016338,0.13301,-1.2108,-0.50484,-0.64769,0.0034838,0,0,-0.73199,0.1857,0,0.0090578,0,0,1.0765,-0.010031,0,1.0765,-0.50482,-1.2108,-0.64769,89.717,-0.78776,0.64647,-0.011624,0.86,0.48,0
0.093856,0.015824,0.11164,-1.1919,-0.49421,-0.61748,-0.0015262,0,0,-0.74677,0.16025,0,-0.0039682,0,0,1.0559,-0.0092844,0,1.056,-0.4942,-1.1919,-0.61748,-89.875,-0.76787,0.64498,-0.012101,0.88,0.48,0
0.078803,0.015182,0.090773,-1.1652,-0.48168,-0.58483,-0.0087061,0,0,-0.75447,0.1341,0,-0.022636,0,0,1.0239,-0.0034888,0,1.0241,-0.48157,-1.1653,-0.58483,-89.27,-0.7439,0.6384,-0.012193,0.9,0.48,0
0.063677,0.014592,0.070683,-1.1397,-0.46799,-0.553,-0.012895,0,0,-0.76275,0.11051,0,-0.033527,0,0,0.97893,0.011846,0,0.9794,-0.46774,-1.14,-0.553,-88.901,-0.72024,0.63392,-0.012289,0.92,0.48,0
0.048294,0.014331,0.051616,-1.112,-0.43113,-0.51454,-0.008185,0,0,-0.77664,0.10843,0,-0.021281,0,0,0.92546,0.023256,0,0.92624,-0.43104,-1.1121,-0.51454,-89.311,-0.68588,0.64335,-0.012903,0.94,0.48,0
0.032612,0.01442,0.033665,-1.0858,-0.38282,-0.47425,-0.0059209,0,0,-0.79501,0.11886,0,-0.015394,0,0,0.87555,0.02525,0,0.87625,-0.38277,-1.0858,-0.47425,-89.517,-0.64762,0.66209,-0.013952,0.96,0.48,0
0.016493,0.014552,0.016594,-1.0722,-0.3559,-0.44501,-0.0034091,0,0,-0.81529,0.11584,0,-0.0088635,0,0,0.84162,0.013323,0,0.84176,-0.35588,-1.0722,-0.44501,-89.727,-0.62435,0.67614,-0.01495,0.98,0.48,0
0,0.014582,0,-1.0445,-0.32272,-0.41017,0.0005618,0,0,-0.82466,0.11369,0,0.0014607,0,0,0.82968,6.0715e-18,0,0.82965,-0.32272,-1.0445,-0.41017,89.955,-0.59247,0.6823,-0.015414,1,0.48,0
0,0.016942,1,-0.97002,-1.7968,-1.83,0.0008662,0,0,1.118,0.043251,0,0.0022521,0,0,0.82105,1.3824e-15,0,0.82105,-0.97002,-1.7968,-1.83,0.06003,-1.5323,0.84388,0.030703,0,0.5,0
0.02236,0.016987,0.98358,-0.95317,-1.7566,-1.7965,0.0038369,0,0,1.0963,0.05193,0,0.0099759,0,0,0.82532,0.0081292,0,0.82537,-0.95315,-1.7566,-1.7965,0.27363,-1.5021,0.82411,0.028518,0.02,0.5,0
0.043853,0.017026,0.96699,-0.96476,-1.709,-1.7691,0.0028153,0,0,1.0456,0.078177,0,0.0073199,0,0,0.83814,0.017486,0,0.83836,-0.96475,-1.709,-1.7691,0.21675,-1.4809,0.77604,0.023518,0.04,0.5,0
0.064186,0.01681,0.95005,-0.98462,-1.6442,-1.7387,-0.0066829,0,0,0.98032,0.12281,0,-0.017376,0,0,0.85906,0.02797,0,0.8596,-0.98455,-1.6443,-1.7387,-0.58041,-1.4559,0.71167,0.017419,0.06,0.5,0
0.083066,0.016023,0.93263,-1.0124,-1.5618,-1.7049,-0.023518,0,0,0.90024,0.18599,0,-0.061147,0,0,0.8863,0.036415,0,0.88719,-1.0114,-1.5628,-1.7049,-2.4466,-1.4264,0.63451,0.010935,0.08,0.5,0
0.1002,0.014511,0.9146,-1.0433,-1.462,-1.6662,-0.040222,0,0,0.80978,0.26543,0,-0.10458,0,0,0.91619,0.039111,0,0.91717,-1.0394,-1.4659,-1.6662,-5.4374,-1.3905,0.55441,0.0050562,0.1,0.5,0
0.11546,0.012488,0.89598,-1.072,-1.3593,-1.6254,-0.045734,0,0,0.71937,0.34592,0,-0.11891,0,0,0.94403,0.033799,0,0.94472,-1.0649,-1.3664,-1.6254,-8.831,-1.3522,0.48584,0.0007708,0.12,0.5,0
0.12897,0.010445,0.87684,-1.0956,-1.2776,-1.5888,-0.03894,0,0,0.64117,0.40455,0,-0.10125,0,0,0.96615,0.023067,0,0.96645,-1.0876,-1.2856,-1.5888,-11.583,-1.3207,0.43722,-0.0015199,0.14,0.5,0
0.1411,0.0087665,0.85733,-1.1105,-1.2217,-1.557,-0.025637,0,0,0.58044,0.43584,0,-0.066656,0,0,0.98131,0.010142,0,0.98136,-1.1049,-1.2274,-1.557,-12.374,-1.2964,0.40501,-0.0023896,0.16,0.5,0
0.15219,0.0075859,0.83759,-1.1176,-1.1843,-1.5282,-0.01224,0,0,0.53373,0.44699,0,-0.031825,0,0,0.99039,-0.0024842,0,0.99038,-1.1154,-1.1865,-1.5282,-10.074,-1.2767,0.38219,-0.0025362,0.18,0.5,0
0.16245,0.00689,0.81772,-1.1194,-1.1569,-1.5006,-0.00014349,0,0,0.49554,0.44684,0,-0.00037306,0,0,0.99484,-0.014805,0,0.99494,-1.1194,-1.1569,-1.5006,-0.21944,-1.259,0.3639,-0.0023868,0.2,0.5,0
0.17201,0.006628,0.79779,-1.1191,-1.1366,-1.4745,0.011059,0,0,0.46202,0.43927,0,0.028754,0,0,0.99566,-0.027297,0,0.99602,-1.1138,-1.142,-1.4745,25.826,-1.2434,0.34751,-0.0021076,0.22,0.5,0
0.18093,0.0067735,0.77789,-1.1172,-1.1226,-1.4498,0.022334,0,0,0.43243,0.4254,0,0.058067,0,0,0.99312,-0.040619,0,0.99394,-1.0974,-1.1424,-1.4498,41.549,-1.2299,0.33223,-0.0017674,0.24,0.5,0
0.18931,0.0073283,0.75807,-1.1127,-1.1158,-1.4266,0.034788,0,0,0.40807,0.40407,0,0.090449,0,0,0.98692,-0.055608,0,0.98847,-1.0794,-1.1491,-1.4266,43.735,-1.2184,0.31813,-0.0013902,0.26,0.5,0
0.19726,0.0083285,0.73841,-1.103,-1.1187,-1.4049,0.04937,0,0,0.3925,0.37211,0,0.12836,0,0,0.97607,-0.073281,0,0.97881,-1.0608,-1.1608,-1.4049,40.487,-1.2088,0.30656,-0.00096656,0.28,0.5,0
0.20501,0.0098007,0.71903,-1.087,-1.1374,-1.3863,0.065895,0,0,0.3891,0.32367,0,0.17133,0,0,0.95933,-0.094565,0,0.96399,-1.0417,-1.1827,-1.3863,34.548,-1.2036,0.30013,-0.00042767,0.3,0.5,0
0.21282,0.011696,0.70004,-1.066,-1.1737,-1.372,0.080429,0,0,0.39767,0.25779,0,0.20911,0,0,0.93637,-0.11791,0,0.94381,-1.0231,-1.2166,-1.372,28.111,-1.2039,0.30273,0.00026819,0.32,0.5,0
0.22091,0.013827,0.68157,-1.0449,-1.2178,-1.3604,0.090217,0,0,0.41013,0.18535,0,0.23456,0,0,0.90964,-0.14067,0,0.92054,-1.0064,-1.2563,-1.3604,23.11,-1.2077,0.31511,0.0010359,0.34,0.5,0
0.22923,0.015999,0.66365,-1.0279,-1.2489,-1.3467,0.096493,0,0,0.41443,0.12711,0,0.25088,0,0,0.88528,-0.1605,0,0.89975,-0.99172,-1.2851,-1.3467,20.564,-1.2079,0.32856,0.0016081,0.36,0.5,0
0.23749,0.018234,0.64616,-1.0195,-1.2589,-1.3297,0.10861,0,0,0.40327,0.09198,0,0.28239,0,0,0.8737,-0.18044,0,0.89208,-0.97755,-1.3009,-1.3297,21.107,-1.2027,0.33864,0.0019458,0.38,0.5,0
0.24536,0.021016,0.6287,-1.0427,-1.2613,-1.3199,0.13199,0,0,0.36038,0.076174,0,0.34319,0,0,0.89534,-0.20718,0,0.91894,-0.98062,-1.3234,-1.3199,25.185,-1.208,0.34104,0.0020364,0.4,0.5,0
0.25191,0.024841,0.61035,-1.0723,-1.1918,-1.2896,0.1639,0,0,0.28244,0.12715,0,0.42613,0,0,0.9432,-0.23327,0,0.97268,-0.95759,-1.3065,-1.2896,34.988,-1.1845,0.34074,0.0020151,0.42,0.5,0
0.25665,0.029769,0.59098,-1.0851,-1.0163,-1.2214,0.13286,0,0,0.17714,0.26665,0,0.34544,0,0,0.99108,-0.14038,0,1.0004,-0.91347,-1.188,-1.2214,52.263,-1.1076,0.29265,0.0012308,0.44,0.5,0
0.25899,0.033442,0.5707,-1.1339,-0.97942,-1.2047,0.087676,0,0,0.09208,0.29284,0,0.22796,0,0,1.0193,-0.089638,0,1.0231,-0.93981,-1.1735,-1.2047,65.685,-1.106,0.25073,0.00076742,0.46,0.5,0
0.26034,0.035197,0.55021,-1.142,-0.9385,-1.1744,0.051386,0,0,0.042063,0.30661,0,0.1336,0,0,1.0321,-0.05599,0,1.0336,-0.92626,-1.1542,-1.1744,76.602,-1.085,0.23867,0.00068155,0.48,0.5,0
0.26067,0.035742,0.52942,-1.1538,-0.90085,-1.1458,0.028522,0,0,-0.010348,0.31844,0,0.074157,0,0,1.0474,-0.033919,0,1.0479,-0.89768,-1.1569,-1.1458,83.645,-1.0668,0.25388,0.00083498,0.5,0.5,0
0.25992,0.035432,0.50831,-1.1683,-0.86358,-1.1179,0.014294,0,0,-0.065526,0.33057,0,0.037165,0,0,1.0632,-0.020812,0,1.0634,-0.86291,-1.1689,-1.1179,87.32,-1.0499,0.28396,0.0010488,0.52,0.5,0
0.25805,0.0346,0.48689,-1.1836,-0.8285,-1.0905,0.0073803,0,0,-0.12097,0.34061,0,0.019189,0,0,1.0777,-0.014201,0,1.0778,-0.82834,-1.1837,-1.0905,88.81,-1.0342,0.31914,0.0012019,0.54,0.5,0
0.25509,0.033509,0.4652,-1.1978,-0.79745,-1.0638,0.005274,0,0,-0.17418,0.34621,0,0.013713,0,0,1.0896,-0.011415,0,1.0896,-0.79738,-1.1978,-1.0638,89.245,-1.0196,0.35305,0.0012112,0.56,0.5,0
0.25109,0.032335,0.44331,-1.2096,-0.77025,-1.0373,0.0056567,0,0,-0.22403,0.34711,0,0.014707,0,0,1.0985,-0.010425,0,1.0985,-0.77018,-1.2097,-1.0373,89.263,-1.0057,0.38354,0.0010512,0.58,0.5,0
0.24612,0.031173,0.42126,-1.219,-0.74591,-1.0107,0.0067699,0,0,-0.27073,0.34427,0,0.017602,0,0,1.1049,-0.010054,0,1.1049,-0.74581,-1.2191,-1.0107,89.18,-0.99188,0.41084,0.0007309,0.6,0.5,0
0.24026,0.030063,0.39911,-1.2263,-0.72327,-0.98397,0.0078407,0,0,-0.31496,0.33891,0,0.020386,0,0,1.1093,-0.0098313,0,1.1093,-0.72315,-1.2264,-0.98397,89.107,-0.97783,0.4359,0.00026946,0.62,0.5,0
0.23353,0.029016,0.37689,-1.2319,-0.70174,-0.95699,0.0086125,0,0,-0.35742,0.33183,0,0.022392,0,0,1.1122,-0.0095781,0,1.1123,-0.7016,-1.2321,-0.95699,89.07,-0.96355,0.45951,-0.00032,0.64,0.5,0
0.22596,0.028031,0.35462,-1.2364,-0.68097,-0.92983,0.0090595,0,0,-0.39854,0.32353,0,0.023555,0,0,1.1141,-0.0092355,0,1.1141,-0.68082,-1.2366,-0.92983,89.066,-0.94907,0.48214,-0.0010284,0.66,0.5,0
0.21758,0.027103,0.33233,-1.2399,-0.66076,-0.90252,0.0092194,0,0,-0.43857,0.31429,0,0.02397,0,0,1.1151,-0.0087918,0,1.1152,-0.66062,-1.24,-0.90252,89.088,-0.93439,0.50406,-0.0018489,0.68,0.5,0
0.20842,0.026228,0.31002,-1.2425,-0.64102,-0.87508,0.0091383,0,0,-0.47766,0.30427,0,0.023759,0,0,1.1154,-0.0082523,0,1.1154,-0.64088,-1.2427,-0.87508,89.13,-0.91953,0.52539,-0.0027754,0.7,0.5,0
0.19848,0.025399,0.28771,-1.2443,-0.62169,-0.84751,0.0088468,0,0,-0.51583,0.29357,0,0.023002,0,0,1.115,-0.0076252,0,1.1151,-0.62156,-1.2444,-0.84751,89.186,-0.9045,0.54615,-0.0038005,0.72,0.5,0
0.18778,0.024611,0.26542,-1.2452,-0.60275,-0.81981,0.0083497,0,0,-0.55304,0.28218,0,0.021709,0,0,1.114,-0.006913,0,1.114,-0.60264,-1.2453,-0.81981,89.255,-0.88926,0.56626,-0.0049147,0.74,0.5,0
0.17636,0.023856,0.24315,-1.2452,-0.58423,-0.79198,0.0076144,0,0,-0.58918,0.27007,0,0.019797,0,0,1.1122,-0.0061047,0,1.1122,-0.58414,-1.2453,-0.79198,89.34,-0.8738,0.58557,-0.0061044,0.76,0.5,0
0.16422,0.023127,0.22093,-1.244,-0.56617,-0.76399,0.0065518,0,0,-0.62403,0.25716,0,0.017035,0,0,1.1094,-0.0051629,0,1.1094,-0.56611,-1.2441,-0.76399,89.446,-0.85806,0.60386,-0.0073507,0.78,0.5,0
0.15139,0.022411,0.19878,-1.2415,-0.54866,-0.73581,0.0049794,0,0,-0.65734,0.24329,0,0.012946,0,0,1.1053,-0.0040015,0,1.1054,-0.54863,-1.2415,-0.73581,89.588,-0.84198,0.62082,-0.0086272,0.8,0.5,0
0.13792,0.02169,0.17672,-1.2372,-0.53184,-0.70744,0.0025551,0,0,-0.68874,0.22828,0,0.0066434,0,0,1.0996,-0.0024367,0,1.0996,-0.53183,-1.2372,-0.70744,89.793,-0.82551,0.63606,-0.0098988,0.82,0.5,0
0.12384,0.020934,0.15479,-1.231,-0.51585,-0.67885,-0.0013323,0,0,-0.7178,0.2119,0,-0.003464,0,0,1.0915,-7.8121e-05,0,1.0915,-0.51584,-1.231,-0.67885,-89.893,-0.80856,0.64919,-0.011122,0.84,0.5,0
0.10921,0.0201,0.13306,-1.2226,-0.50083,-0.65007,-0.0076508,0,0,-0.74424,0.19402,0,-0.019892,0,0,1.0801,0.0039288,0,1.0801,-0.50075,-1.2226,-0.65007,-89.393,-0.79116,0.66003,-0.012258,0.86,0.5,0
0.094075,0.019137,0.11159,-1.2111,-0.48587,-0.62069,-0.01747,0,0,-0.76758,0.17527,0,-0.045423,0,0,1.0643,0.01154,0,1.0644,-0.48545,-1.2115,-0.62069,-88.621,-0.77256,0.66882,-0.013272,0.88,0.5,0
0.078507,0.018035,0.090484,-1.1933,-0.46906,-0.58918,-0.031719,0,0,-0.7853,0.15615,0,-0.082469,0,0,1.0428,0.026565,0,1.0432,-0.46768,-1.1946,-0.58918,-87.497,-0.7505,0.67448,-0.014051,0.9,0.5,0
0.062663,0.016828,0.069875,-1.1481,-0.4431,-0.54723,-0.044415,0,0,-0.78113,0.13538,0,-0.11548,0,0,0.99843,0.056396,0,0.99982,-0.44031,-1.1509,-0.54723,-86.409,-0.71281,0.66361,-0.013705,0.92,0.5,0
0.047262,0.016443,0.050548,-1.1181,-0.442,-0.51858,-0.05742,0,0,-0.77939,0.09956,0,-0.14929,0,0,0.9304,0.12144,0,0.94024,-0.43715,-1.123,-0.51858,-85.18,-0.6929,0.64893,-0.013293,0.94,0.5,0
0.031487,0.016797,0.032659,-1.0809,-0.40074,-0.47714,-0.035604,0,0,-0.78483,0.099314,0,-0.092571,0,0,0.86089,0.074191,0,0.86412,-0.39888,-1.0827,-0.47714,-87.011,-0.65291,0.64825,-0.013306,0.96,0.5,0
0.015869,0.016789,0.016112,-1.0459,-0.36845,-0.44043,-0.019503,0,0,-0.78718,0.093578,0,-0.050708,0,0,0.81647,0.032803,0,0.81702,-0.36789,-1.0465,-0.44043,-88.353,-0.61828,0.64542,-0.013222,0.98,0.5,0
0,0.016766,0,-1.0158,-0.33558,-0.4054,-0.0004582,0,0,-0.79347,0.090768,0,-0.0011913,0,0,0.8056,0,0,0.80548,-0.33558,-1.0158,-0.4054,-89.961,-0.58558,0.6481,-0.013436,1,0.5,0
0,0.017726,1,-0.96401,-1.8073,-1.8314,0.004676,0,0,1.1276,0.031365,0,0.012158,0,0,0.82491,1.0439e-15,0,0.82491,-0.96399,-1.8073,-1.8314,0.31771,-1.5342,0.8556,0.032083,0,0.52,0
0.022552,0.017969,0.9835,-0.94841,-1.765,-1.7975,0.012786,0,0,1.1038,0.042302,0,0.033244,0,0,0.82979,-0.0012192,0,0.82981,-0.94821,-1.7652,-1.7975,0.89687,-1.5036,0.83361,0.029601,0.02,0.52,0
0.044154,0.018614,0.96681,-0.96286,-1.71,-1.7687,0.021074,0,0,1.0475,0.076307,0,0.054792,0,0,0.84378,-0.00061386,0,0.84383,-0.96227,-1.7106,-1.7687,1.6145,-1.4805,0.77896,0.023821,0.04,0.52,0
0.064453,0.019401,0.94975,-0.98578,-1.6334,-1.7355,0.020392,0,0,0.97465,0.13273,0,0.05302,0,0,0.86494,0.002458,0,0.86503,-0.98514,-1.6341,-1.7355,1.8017,-1.4516,0.70514,0.016757,0.06,0.52,0
0.08314,0.019951,0.93221,-1.0141,-1.5411,-1.6987,0.0096647,0,0,0.8901,0.20497,0,0.025128,0,0,0.89024,0.0067731,0,0.89037,-1.0139,-1.5413,-1.6987,1.0502,-1.418,0.62128,0.0096998,0.08,0.52,0
0.10006,0.01995,0.91414,-1.0437,-1.4451,-1.6608,-0.005879,0,0,0.80221,0.28037,0,-0.015286,0,0,0.91614,0.0098674,0,0.91629,-1.0436,-1.4452,-1.6608,-0.83891,-1.3832,0.54252,0.0040522,0.1,0.52,0
0.11523,0.019352,0.89557,-1.0701,-1.3574,-1.6238,-0.017697,0,0,0.71985,0.34636,0,-0.046011,0,0,0.93947,0.0097013,0,0.93958,-1.069,-1.3584,-1.6238,-3.5114,-1.3504,0.48064,0.00042919,0.12,0.52,0
0.12885,0.018375,0.87656,-1.0902,-1.2863,-1.5895,-0.020939,0,0,0.64913,0.3942,0,-0.054441,0,0,0.95819,0.0058835,0,0.95824,-1.0879,-1.2885,-1.5895,-6.0273,-1.322,0.43724,-0.0014541,0.14,0.52,0
0.14119,0.017317,0.85724,-1.1033,-1.2335,-1.5583,-0.016715,0,0,0.59152,0.42219,0,-0.04346,0,0,0.97163,-0.00055545,0,0.97164,-1.1011,-1.2356,-1.5583,-7.1975,-1.2983,0.40691,-0.0022293,0.16,0.52,0
0.15251,0.016394,0.8377,-1.1101,-1.1953,-1.5293,-0.0084026,0,0,0.54496,0.43426,0,-0.021847,0,0,0.98006,-0.0084022,0,0.9801,-1.1093,-1.1961,-1.5293,-5.5819,-1.2782,0.38405,-0.0024159,0.18,0.52,0
0.16299,0.015713,0.81803,-1.1128,-1.1673,-1.5021,0.0012731,0,0,0.50609,0.43516,0,0.00331,0,0,0.98415,-0.016951,0,0.98428,-1.1127,-1.1674,-1.5021,1.3358,-1.2607,0.3651,-0.002312,0.2,0.52,0
0.17275,0.015307,0.79833,-1.1126,-1.1467,-1.4761,0.01112,0,0,0.47258,0.42821,0,0.028913,0,0,0.98434,-0.026073,0,0.98468,-1.1093,-1.1501,-1.4761,16.546,-1.2452,0.34825,-0.0020695,0.22,0.52,0
0.1819,0.01517,0.77866,-1.1101,-1.1328,-1.4515,0.020715,0,0,0.44384,0.41434,0,0.053859,0,0,0.9807,-0.035911,0,0.98135,-1.0979,-1.1451,-1.4515,30.643,-1.2315,0.33259,-0.0017618,0.24,0.52,0
0.19051,0.015279,0.7591,-1.1042,-1.1266,-1.4283,0.029901,0,0,0.4214,0.39228,0,0.077742,0,0,0.97275,-0.046781,0,0.97388,-1.0834,-1.1473,-1.4283,34.735,-1.2197,0.3178,-0.0014268,0.26,0.52,0
0.19875,0.015598,0.73975,-1.0932,-1.1313,-1.4071,0.038573,0,0,0.40809,0.35856,0,0.10029,0,0,0.95965,-0.059121,0,0.96149,-1.0692,-1.1552,-1.4071,31.858,-1.2105,0.30413,-0.0010644,0.28,0.52,0
0.20683,0.016085,0.72072,-1.076,-1.1505,-1.3887,0.046791,0,0,0.40644,0.30959,0,0.12166,0,0,0.94064,-0.073408,0,0.94354,-1.0535,-1.1731,-1.3887,25.739,-1.2051,0.29423,-0.00061742,0.3,0.52,0
0.21501,0.016709,0.70212,-1.0545,-1.1849,-1.374,0.055293,0,0,0.4153,0.24571,0,0.14376,0,0,0.91597,-0.090111,0,0.92047,-1.0342,-1.2052,-1.374,20.144,-1.2045,0.29423,1.5281e-05,0.32,0.52,0
0.22344,0.017482,0.68408,-1.0322,-1.2262,-1.3616,0.065859,0,0,0.42822,0.17605,0,0.17123,0,0,0.8877,-0.10983,0,0.89456,-1.0119,-1.2464,-1.3616,17.089,-1.2066,0.30862,0.00083176,0.34,0.52,0
0.23214,0.018495,0.66662,-1.0139,-1.2607,-1.349,0.081679,0,0,0.43564,0.11482,0,0.21237,0,0,0.85985,-0.13397,0,0.87026,-0.98928,-1.2852,-1.349,16.751,-1.2078,0.33244,0.0016556,0.36,0.52,0
0.24087,0.019979,0.64968,-1.0071,-1.2835,-1.3369,0.10563,0,0,0.42865,0.069421,0,0.27463,0,0,0.83738,-0.16634,0,0.85362,-0.97138,-1.3192,-1.3369,18.699,-1.2091,0.35699,0.0023173,0.38,0.52,0
0.24928,0.022161,0.63312,-1.0173,-1.2997,-1.3282,0.15986,0,0,0.40421,0.03705,0,0.41565,0,0,0.83762,-0.21715,0,0.86447,-0.94521,-1.3718,-1.3282,24.272,-1.2151,0.40657,0.0033183,0.4,0.52,0
0.25704,0.027305,0.61618,-0.94498,-1.0994,-1.0755,0.20804,0,0,0.19385,-0.074531,0,0.76267,0,0,0.74735,-0.25378,0,0.78938,-0.80003,-1.2444,-1.0755,35.099,-1.04,0.39284,0.0018288,0.42,0.52,0
0.25898,0.03611,0.59386,-0.97168,-0.96467,-1.0263,0.14496,0,0,0.094677,0.0017254,0,0.54089,0,0,0.81693,-0.13751,0,0.82882,-0.8015,-1.1348,-1.0263,43.918,-0.98755,0.30891,0.00093457,0.44,0.52,0
0.26083,0.039695,0.57261,-0.94993,-0.93297,-0.99433,0.08516,0,0,0.076963,0.0032027,0,0.32826,0,0,0.79478,-0.093759,0,0.80075,-0.82304,-1.0599,-0.99433,45.981,-0.95908,0.23077,0.00034518,0.46,0.52,0
0.26205,0.041607,0.55147,-0.94624,-0.90282,-0.96832,0.058493,0,0,0.038274,0.010043,0,0.22895,0,0,0.79395,-0.065281,0,0.79696,-0.81904,-1.03,-0.96832,48.544,-0.93913,0.20717,0.00032825,0.48,0.52,0
0.26236,0.042278,0.53027,-0.95212,-0.87468,-0.94574,0.039938,0,0,-0.011057,0.021372,0,0.15913,0,0,0.79843,-0.04598,0,0.79997,-0.81202,-1.0148,-0.94574,50.746,-0.92418,0.19691,0.00041176,0.5,0.52,0
0.26161,0.042125,0.50889,-0.96106,-0.84581,-0.92373,0.027721,0,0,-0.064712,0.035275,0,0.11251,0,0,0.80544,-0.033077,0,0.80626,-0.801,-1.0059,-0.92373,52.511,-0.9102,0.1975,0.00052238,0.52,0.52,0
0.25977,0.041431,0.48731,-0.97089,-0.81732,-0.90194,0.020108,0,0,-0.1195,0.049253,0,0.082952,0,0,0.81295,-0.024803,0,0.81343,-0.78831,-0.99989,-0.90194,54.862,-0.89672,0.20538,0.00060072,0.54,0.52,0
0.25683,0.040423,0.46553,-0.97997,-0.79019,-0.88019,0.015904,0,0,-0.17294,0.061163,0,0.066124,0,0,0.81977,-0.01967,0,0.82007,-0.77444,-0.99571,-0.88019,59.839,-0.88345,0.21864,0.00060948,0.56,0.52,0
0.25285,0.039262,0.44359,-0.98742,-0.76487,-0.85838,0.013817,0,0,-0.22368,0.06994,0,0.057381,0,0,0.82534,-0.016463,0,0.82554,-0.75796,-0.99433,-0.85838,69.605,-0.87022,0.23544,0.00053206,0.58,0.52,0
0.24788,0.03805,0.42151,-0.99299,-0.74119,-0.83639,0.012841,0,0,-0.27144,0.07559,0,0.053001,0,0,0.82958,-0.014339,0,0.82973,-0.73796,-0.99622,-0.83639,78.137,-0.85686,0.25394,0.0003695,0.6,0.52,0
0.24199,0.036841,0.39934,-0.99686,-0.71881,-0.81421,0.012308,0,0,-0.3166,0.078616,0,0.05048,0,0,0.83266,-0.01279,0,0.83278,-0.71688,-0.99879,-0.81421,82.232,-0.84329,0.27288,0.00012918,0.62,0.52,0
0.23522,0.035658,0.37711,-0.9994,-0.69737,-0.79186,0.011878,0,0,-0.35974,0.079624,0,0.048472,0,0,0.8348,-0.011535,0,0.83489,-0.69604,-1.0007,-0.79186,84.292,-0.82954,0.29174,-0.00018145,0.64,0.52,0
0.2276,0.034512,0.35482,-1.0009,-0.67666,-0.76939,0.011392,0,0,-0.40134,0.079095,0,0.046319,0,0,0.83618,-0.010415,0,0.83626,-0.67568,-1.0019,-0.76939,85.531,-0.81566,0.31031,-0.00055735,0.66,0.52,0
0.21917,0.033403,0.33251,-1.0017,-0.65651,-0.74684,0.010778,0,0,-0.44174,0.077369,0,0.04371,0,0,0.83697,-0.0093366,0,0.83703,-0.65577,-1.0024,-0.74684,86.392,-0.80168,0.32858,-0.00099497,0.68,0.52,0
0.20993,0.03233,0.31018,-1.0018,-0.63684,-0.72423,0.0099975,0,0,-0.48113,0.07467,0,0.040465,0,0,0.83724,-0.0082385,0,0.83728,-0.63628,-1.0024,-0.72423,87.058,-0.78763,0.34651,-0.0014913,0.7,0.52,0
0.19992,0.031289,0.28786,-1.0013,-0.61757,-0.70156,0.0090142,0,0,-0.5196,0.071138,0,0.036423,0,0,0.83703,-0.0070696,0,0.83706,-0.61716,-1.0017,-0.70156,87.62,-0.77349,0.36408,-0.0020431,0.72,0.52,0
0.18915,0.030275,0.26554,-1.0003,-0.59866,-0.67884,0.0077786,0,0,-0.55716,0.066848,0,0.031374,0,0,0.83634,-0.0057759,0,0.83636,-0.59839,-1.0006,-0.67884,88.13,-0.75926,0.38124,-0.0026461,0.74,0.52,0
0.17764,0.029281,0.24325,-0.9986,-0.5801,-0.65605,0.0062114,0,0,-0.59375,0.061839,0,0.024993,0,0,0.83512,-0.0042857,0,0.83513,-0.57994,-0.99875,-0.65605,88.625,-0.74491,0.3979,-0.0032947,0.76,0.52,0
0.1654,0.028298,0.221,-0.99623,-0.56187,-0.63318,0.0041838,0,0,-0.62928,0.056136,0,0.01677,0,0,0.83327,-0.0024905,0,0.83328,-0.5618,-0.99629,-0.63318,89.141,-0.73042,0.41398,-0.0039817,0.78,0.52,0
0.15246,0.027312,0.19881,-0.99312,-0.54396,-0.61023,0.0014889,0,0,-0.66368,0.049783,0,0.0058991,0,0,0.83064,-0.00021443,0,0.83064,-0.54395,-0.99313,-0.61023,89.718,-0.71577,0.42941,-0.0046992,0.8,0.52,0
0.13885,0.026304,0.1767,-0.98932,-0.52636,-0.58723,-0.0022007,0,0,-0.69695,0.042917,0,-0.0088662,0,0,0.82702,0.0028405,0,0.82703,-0.52634,-0.98933,-0.58723,-89.594,-0.70097,0.44426,-0.0054412,0.82,0.52,0
0.12459,0.025245,0.1547,-0.98509,-0.509,-0.56425,-0.0073791,0,0,-0.72945,0.035892,0,-0.029367,0,0,0.8222,0.0071995,0,0.82225,-0.50883,-0.98526,-0.56425,-88.733,-0.68611,0.45885,-0.0062117,0.84,0.52,0
0.10967,0.024099,0.13285,-0.98113,-0.49167,-0.54148,-0.014717,0,0,-0.76206,0.029526,0,-0.058018,0,0,0.81606,0.013825,0,0.81621,-0.49106,-0.98174,-0.54148,-87.637,-0.67143,0.47409,-0.0070387,0.86,0.52,0
0.094104,0.022834,0.11118,-0.97872,-0.47394,-0.51918,-0.025134,0,0,-0.79653,0.025194,0,-0.098054,0,0,0.80887,0.024476,0,0.80932,-0.4723,-0.98037,-0.51918,-86.254,-0.65728,0.49177,-0.0079961,0.88,0.52,0
0.077814,0.021429,0.08971,-0.98103,-0.45643,-0.49852,-0.039315,0,0,-0.83634,0.024588,0,-0.15177,0,0,0.8016,0.04255,0,0.80287,-0.45278,-0.98467,-0.49852,-84.636,-0.64533,0.51466,-0.0092445,0.9,0.52,0
0.06065,0.020008,0.068428,-0.99222,-0.43922,-0.48075,-0.062746,0,0,-0.88655,0.028493,0,-0.23703,0,0,0.80536,0.074985,0,0.80893,-0.43113,-1.0003,-0.48075,-82.417,-0.6374,0.5489,-0.011166,0.92,0.52,0
0.042352,0.018313,0.046758,-0.9025,-0.42214,-0.43246,-0.10229,0,0,-0.83978,0.002758,0,-0.3772,0,0,0.71913,0.17404,0,0.73978,-0.40092,-0.92373,-0.43246,-78.033,-0.5857,0.50806,-0.0079376,0.94,0.52,0
0.028562,0.018392,0.030697,-0.98878,-0.41921,-0.4531,-0.064264,0,0,-0.69639,0.044052,0,-0.16709,0,0,0.78691,0.10479,0,0.79288,-0.41205,-0.99594,-0.4531,-83.642,-0.62036,0.56449,-0.0090739,0.96,0.52,0
0.014496,0.018295,0.015281,-0.97343,-0.3895,-0.42416,-0.030735,0,0,-0.71405,0.045058,0,-0.07991,0,0,0.76743,0.044875,0,0.76845,-0.38789,-0.97504,-0.42416,-86.995,-0.5957,0.56988,-0.0093759,0.98,0.52,0
0,0.018212,0,-0.94957,-0.35715,-0.39202,-0.0015992,0,0,-0.72482,0.045327,0,-0.0041579,0,0,0.76408,3.4694e-18,0,0.76386,-0.35714,-0.94957,-0.39202,-89.845,-0.56624,0.57579,-0.0096829,1,0.52,0
0,0.018196,1,-0.95832,-1.8262,-1.8354,0.0092796,0,0,1.1401,0.011934,0,0.024127,0,0,0.81861,1.4155e-15,0,0.81859,-0.95822,-1.8263,-1.8354,0.61255,-1.5399,0.87262,0.034115,0,0.54,0
0.022803,0.018679,0.98363,-0.94374,-1.7831,-1.8017,0.023114,0,0,1.1153,0.024133,0,0.060096,0,0,0.82471,-0.012799,0,0.82482,-0.9431,-1.7838,-1.8017,1.5761,-1.5095,0.84976,0.031468,0.02,0.54,0
0.044613,0.020078,0.96701,-0.96145,-1.723,-1.7724,0.042951,0,0,1.0542,0.064142,0,0.11167,0,0,0.84182,-0.021956,0,0.84218,-0.95903,-1.7254,-1.7724,3.2178,-1.4856,0.7909,0.025107,0.04,0.54,0
0.064969,0.022119,0.94995,-0.98719,-1.631,-1.7354,0.052317,0,0,0.97269,0.13573,0,0.13602,0,0,0.86644,-0.02498,0,0.86693,-0.98297,-1.6352,-1.7354,4.6155,-1.4512,0.70769,0.01698,0.06,0.54,0
0.083521,0.024222,0.93235,-1.0165,-1.5213,-1.6937,0.0441,0,0,0.88036,0.2241,0,0.11466,0,0,0.89371,-0.02143,0,0.89408,-1.0127,-1.5251,-1.6937,4.9553,-1.4105,0.61434,0.0089549,0.08,0.54,0
0.10018,0.025726,0.91421,-1.0457,-1.4228,-1.6548,0.024076,0,0,0.79177,0.30153,0,0.062599,0,0,0.91912,-0.015227,0,0.91932,-1.0442,-1.4244,-1.6548,3.6383,-1.3744,0.53406,0.0032044,0.1,0.54,0
0.11519,0.026343,0.89559,-1.069,-1.3452,-1.6199,0.0043371,0,0,0.71611,0.35702,0,0.011277,0,0,0.94005,-0.010204,0,0.94015,-1.0689,-1.3453,-1.6199,0.89931,-1.3447,0.47712,3.1699e-05,0.12,0.54,0
0.12883,0.026213,0.8766,-1.0848,-1.2858,-1.5878,-0.0064602,0,0,0.65387,0.3926,0,-0.016797,0,0,0.95589,-0.0086863,0,0.95595,-1.0846,-1.286,-1.5878,-1.8392,-1.3195,0.43865,-0.0014623,0.14,0.54,0
0.14135,0.025654,0.85735,-1.0941,-1.2393,-1.5574,-0.0082471,0,0,0.60222,0.41349,0,-0.021442,0,0,0.96702,-0.010195,0,0.96708,-1.0937,-1.2398,-1.5574,-3.2409,-1.297,0.41064,-0.0020984,0.16,0.54,0
0.15292,0.024956,0.83792,-1.0996,-1.2037,-1.5289,-0.0040289,0,0,0.55813,0.42277,0,-0.010475,0,0,0.974,-0.013767,0,0.97409,-1.0994,-1.2039,-1.5289,-2.2125,-1.2774,0.38796,-0.0022823,0.18,0.54,0
0.16367,0.024296,0.81839,-1.1021,-1.1764,-1.5019,0.0031631,0,0,0.51981,0.4232,0,0.0082241,0,0,0.97717,-0.018601,0,0.97735,-1.1019,-1.1765,-1.5019,2.433,-1.2601,0.3684,-0.0022174,0.2,0.54,0
0.17371,0.023756,0.79884,-1.1023,-1.1557,-1.4762,0.011234,0,0,0.48612,0.41669,0,0.029207,0,0,0.9767,-0.024182,0,0.977,-1.1,-1.158,-1.4762,11.408,-1.2448,0.35084,-0.0020156,0.22,0.54,0
0.18312,0.023347,0.77933,-1.1002,-1.1411,-1.4517,0.018748,0,0,0.45698,0.40379,0,0.048744,0,0,0.97241,-0.030216,0,0.97288,-1.0929,-1.1484,-1.4517,21.251,-1.231,0.33453,-0.0017458,0.24,0.54,0
0.19199,0.02302,0.75994,-1.095,-1.1337,-1.4285,0.024397,0,0,0.43361,0.38334,0,0.063432,0,0,0.96371,-0.036517,0,0.96441,-1.0832,-1.1454,-1.4285,25.802,-1.219,0.31881,-0.0014526,0.26,0.54,0
0.20046,0.022671,0.74078,-1.0841,-1.1356,-1.4067,0.027048,0,0,0.41932,0.35243,0,0.070325,0,0,0.94945,-0.042973,0,0.95045,-1.0725,-1.1472,-1.4067,23.217,-1.2088,0.30379,-0.001152,0.28,0.54,0
0.20876,0.022184,0.72196,-1.0664,-1.1531,-1.3878,0.026814,0,0,0.41782,0.30516,0,0.069717,0,0,0.92834,-0.049834,0,0.92975,-1.0588,-1.1607,-1.3878,15.875,-1.2024,0.29174,-0.00077058,0.3,0.54,0
0.21717,0.021524,0.70364,-1.0421,-1.1897,-1.3732,0.028412,0,0,0.43039,0.23854,0,0.073872,0,0,0.89995,-0.059472,0,0.90204,-1.0368,-1.195,-1.3732,10.53,-1.2017,0.29146,-0.00013115,0.32,0.54,0
0.22598,0.020869,0.68596,-1.0153,-1.2396,-1.3625,0.038281,0,0,0.45125,0.15966,0,0.099529,0,0,0.86578,-0.075201,0,0.86921,-1.009,-1.246,-1.3625,9.4233,-1.2058,0.31199,0.00085895,0.34,0.54,0
0.23522,0.020591,0.66901,-0.98831,-1.2832,-1.3505,0.060576,0,0,0.47081,0.087437,0,0.1575,0,0,0.82877,-0.10077,0,0.83498,-0.97635,-1.2952,-1.3505,11.167,-1.2073,0.34976,0.0020136,0.36,0.54,0
0.24481,0.021011,0.65281,-0.96082,-1.3115,-1.3345,0.09476,0,0,0.4858,0.02991,0,0.24638,0,0,0.79052,-0.13802,0,0.80246,-0.93685,-1.3355,-1.3345,14.194,-1.2023,0.39814,0.0032413,0.38,0.54,0
0.25466,0.022498,0.63739,-0.89581,-1.3224,-1.3029,0.12973,0,0,0.52916,-0.025416,0,0.33729,0,0,0.72797,-0.19268,0,0.75252,-0.85945,-1.3588,-1.3029,15.654,-1.1737,0.47383,0.0052083,0.4,0.54,0
0.26598,0.023837,0.62369,-0.85564,-1.1605,-1.0726,0.14582,0,0,0.28111,-0.15229,0,0.54437,0,0,0.64992,-0.21419,0,0.68892,-0.78214,-1.234,-1.0726,27.029,-1.0296,0.40343,0.003582,0.42,0.54,0
0.2659,0.029838,0.5991,-0.81468,-0.92323,-0.82092,0.10654,0,0,0.01622,-0.266,0,0.55402,0,0,0.59247,-0.11453,0,0.60349,-0.74939,-0.98853,-0.82092,31.503,-0.85295,0.2126,-0.00031176,0.44,0.54,0
0.26663,0.03357,0.5763,-0.78402,-0.90135,-0.79376,0.078764,0,0,0.025313,-0.27973,0,0.40957,0,0,0.56169,-0.085987,0,0.56817,-0.74448,-0.94089,-0.79376,26.661,-0.82638,0.177,-0.00021211,0.46,0.54,0
0.26691,0.035598,0.55416,-0.7748,-0.88096,-0.77381,0.058503,0,0,-0.0025853,-0.2786,0,0.30421,0,0,0.55062,-0.064983,0,0.55439,-0.74889,-0.90688,-0.77381,23.891,-0.80986,0.14712,-0.00014785,0.48,0.54,0
0.26652,0.036597,0.53225,-0.7702,-0.85741,-0.75441,0.044261,0,0,-0.041063,-0.26781,0,0.23016,0,0,0.54728,-0.049408,0,0.54948,-0.75167,-0.87594,-0.75441,22.714,-0.79401,0.12292,-9.5232e-05,0.5,0.54,0
0.26527,0.036844,0.51038,-0.76873,-0.83255,-0.73557,0.033807,0,0,-0.086204,-0.25214,0,0.1758,0,0,0.54742,-0.038009,0,0.54873,-0.75415,-0.84713,-0.73557,23.326,-0.77895,0.10353,-5.0854e-05,0.52,0.54,0
0.26307,0.03657,0.48845,-0.76864,-0.80724,-0.71699,0.026488,0,0,-0.13429,-0.23464,0,0.13774,0,0,0.54914,-0.029827,0,0.54995,-0.75517,-0.82071,-0.71699,26.963,-0.76429,0.090861,-1.6879e-05,0.54,0.54,0
0.2599,0.035955,0.46644,-0.76899,-0.78231,-0.69861,0.021584,0,0,-0.18299,-0.21761,0,0.11224,0,0,0.55139,-0.024038,0,0.55191,-0.75306,-0.79824,-0.69861,36.429,-0.74997,0.086403,5.3135e-06,0.56,0.54,0
0.25575,0.035133,0.44434,-0.76919,-0.75826,-0.68041,0.018415,0,0,-0.23083,-0.20242,0,0.095759,0,0,0.55359,-0.019932,0,0.55395,-0.74452,-0.78293,-0.68041,53.261,-0.73595,0.089715,1.5496e-05,0.58,0.54,0
0.25067,0.034197,0.42216,-0.76893,-0.73526,-0.66233,0.016355,0,0,-0.27714,-0.1896,0,0.085045,0,0,0.55548,-0.016945,0,0.55573,-0.72862,-0.77556,-0.66233,67.915,-0.72217,0.098535,1.4282e-05,0.6,0.54,0
0.24467,0.033208,0.39991,-0.76814,-0.71323,-0.64436,0.014924,0,0,-0.32181,-0.17905,0,0.077605,0,0,0.55697,-0.014667,0,0.55717,-0.70944,-0.77193,-0.64436,75.736,-0.70858,0.11048,2.4222e-06,0.62,0.54,0
0.23779,0.032201,0.3776,-0.76685,-0.69203,-0.62646,0.013796,0,0,-0.36501,-0.17046,0,0.071739,0,0,0.55808,-0.01282,0,0.55823,-0.68956,-0.76931,-0.62646,79.879,-0.69511,0.12399,-1.9604e-05,0.64,0.54,0
0.23007,0.031195,0.35526,-0.76515,-0.67149,-0.60862,0.012768,0,0,-0.40698,-0.16346,0,0.066395,0,0,0.55885,-0.011221,0,0.55896,-0.66978,-0.76686,-0.60862,82.375,-0.68175,0.13821,-5.1678e-05,0.66,0.54,0
0.22151,0.030198,0.33289,-0.76312,-0.65149,-0.59083,0.011716,0,0,-0.44796,-0.15772,0,0.060922,0,0,0.55932,-0.0097415,0,0.5594,-0.65028,-0.76434,-0.59083,84.073,-0.66848,0.15272,-9.3955e-05,0.68,0.54,0
0.21215,0.029215,0.31051,-0.76082,-0.63194,-0.57308,0.010554,0,0,-0.48811,-0.15302,0,0.054881,0,0,0.55952,-0.0082872,0,0.55958,-0.63108,-0.76168,-0.57308,85.349,-0.65528,0.16731,-0.00014675,0.7,0.54,0
0.20199,0.028244,0.28813,-0.75829,-0.61276,-0.55538,0.0092132,0,0,-0.52757,-0.14918,0,0.047909,0,0,0.55949,-0.006777,0,0.55953,-0.61218,-0.75887,-0.55538,86.392,-0.64214,0.18187,-0.00021044,0.72,0.54,0
0.19105,0.027284,0.26575,-0.75557,-0.59389,-0.53772,0.00762,0,0,-0.56642,-0.14605,0,0.039624,0,0,0.55921,-0.0051277,0,0.55924,-0.59353,-0.75593,-0.53772,87.308,-0.62906,0.19635,-0.00028546,0.74,0.54,0
0.17933,0.026329,0.24339,-0.75269,-0.57529,-0.52009,0.0056836,0,0,-0.60475,-0.14352,0,0.029555,0,0,0.5587,-0.0032392,0,0.55871,-0.57511,-0.75287,-0.52009,88.167,-0.61602,0.21073,-0.00037242,0.76,0.54,0
0.16686,0.025372,0.22106,-0.7497,-0.5569,-0.50251,0.0032826,0,0,-0.6427,-0.14142,0,0.01707,0,0,0.55793,-0.00097544,0,0.55793,-0.55685,-0.74976,-0.50251,89.025,-0.60304,0.22505,-0.00047238,0.78,0.54,0
0.15362,0.024402,0.19876,-0.74674,-0.53866,-0.485,0.00025231,0,0,-0.68052,-0.13952,0,0.001312,0,0,0.55691,0.0018626,0,0.55691,-0.53866,-0.74674,-0.485,89.93,-0.59013,0.23946,-0.0005876,0.8,0.54,0
0.13964,0.023406,0.17651,-0.74403,-0.52043,-0.46759,-0.0036226,0,0,-0.71874,-0.13739,0,-0.018837,0,0,0.55566,0.0055788,0,0.55569,-0.52038,-0.74409,-0.46759,-89.072,-0.57735,0.25425,-0.000723,0.82,0.54,0
0.12487,0.02237,0.15431,-0.74206,-0.50201,-0.45038,-0.008594,0,0,-0.75838,-0.13426,0,-0.044689,0,0,0.55434,0.010648,0,0.55443,-0.50171,-0.74237,-0.45038,-87.952,-0.56482,0.27001,-0.00088909,0.84,0.54,0
0.1093,0.021281,0.13216,-0.74171,-0.48309,-0.43352,-0.014913,0,0,-0.80129,-0.12889,0,-0.077547,0,0,0.55335,0.017817,0,0.55362,-0.48223,-0.74257,-0.43352,-86.711,-0.55277,0.2878,-0.001107,0.86,0.54,0
0.092823,0.020145,0.11004,-0.74472,-0.46337,-0.41745,-0.022653,0,0,-0.85092,-0.1194,0,-0.11779,0,0,0.5538,0.028253,0,0.55449,-0.46155,-0.74653,-0.41745,-85.426,-0.54185,0.3094,-0.0014175,0.88,0.54,0
0.075263,0.019019,0.087855,-0.75423,-0.44275,-0.40302,-0.031918,0,0,-0.91314,-0.1033,0,-0.16598,0,0,0.55893,0.04377,0,0.56059,-0.43951,-0.75747,-0.40302,-84.209,-0.53333,0.33768,-0.0018999,0.9,0.54,0
0.056297,0.017967,0.065323,-0.77961,-0.42441,-0.39387,-0.040894,0,0,-1.0029,-0.079406,0,-0.21265,0,0,0.58024,0.067417,0,0.58408,-0.41976,-0.78426,-0.39387,-83.517,-0.53263,0.37811,-0.0027325,0.92,0.54,0
0.035146,0.017461,0.041436,-0.7995,-0.42212,-0.39756,-0.061171,0,0,-0.78691,-0.042569,0,-0.22544,0,0,0.62281,0.14248,0,0.64188,-0.41212,-0.80951,-0.39756,-80.993,-0.53973,0.40489,-0.0033935,0.94,0.54,0
0.024821,0.018559,0.028467,-0.83564,-0.42588,-0.40692,-0.047433,0,0,-0.55733,-0.02464,0,-0.12333,0,0,0.67797,0.10193,0,0.68475,-0.42046,-0.84106,-0.40692,-83.482,-0.55615,0.42753,-0.0039999,0.96,0.54,0
0.012853,0.018592,0.014317,-0.87773,-0.40922,-0.4004,-0.027297,0,0,-0.62053,-0.011463,0,-0.070973,0,0,0.71168,0.045292,0,0.71282,-0.40763,-0.87931,-0.4004,-86.677,-0.56245,0.47534,-0.0055118,0.98,0.54,0
0,0.018579,0,-0.86939,-0.38077,-0.37505,-0.0002508,0,0,-0.64264,-0.0074395,0,-0.00065208,0,0,0.71585,5.2042e-18,0,0.71561,-0.38077,-0.86939,-0.37505,-89.971,-0.54173,0.4915,-0.0060955,1,0.54,0
0,0.018204,1,-0.95389,-1.8505,-1.8413,0.01406,0,0,1.1537,-0.011974,0,0.036555,0,0,0.79932,2.3055e-15,0,0.79924,-0.95367,-1.8508,-1.8413,0.8981,-1.5486,0.89241,0.036489,0,0.56,0
0.023074,0.018935,0.98401,-0.94142,-1.8128,-1.8103,0.032534,0,0,1.1295,-0.0032466,0,0.084588,0,0,0.80784,-0.026935,0,0.80825,-0.94021,-1.814,-1.8103,2.1353,-1.5215,0.87192,0.034043,0.02,0.56,0
0.04518,0.021179,0.96769,-0.96129,-1.7531,-1.782,0.067933,0,0,1.0669,0.037582,0,0.17663,0,0,0.8316,-0.051666,0,0.83335,-0.95551,-1.7589,-1.782,4.8683,-1.4988,0.81518,0.027746,0.04,0.56,0
0.06575,0.02483,0.95075,-0.99145,-1.6403,-1.7403,0.090069,0,0,0.97347,0.12997,0,0.23418,0,0,0.86546,-0.059892,0,0.86776,-0.97917,-1.6526,-1.7403,7.758,-1.4573,0.72125,0.018313,0.06,0.56,0
0.084119,0.028915,0.93307,-1.0185,-1.4899,-1.6856,0.081677,0,0,0.86724,0.25439,0,0.21236,0,0,0.89999,-0.053516,0,0.90174,-1.0047,-1.5036,-1.6856,9.5559,-1.398,0.61057,0.0082861,0.08,0.56,0
0.10044,0.032012,0.91475,-1.0481,-1.3883,-1.6457,0.047211,0,0,0.77683,0.33462,0,0.12275,0,0,0.92737,-0.036925,0,0.92813,-1.0417,-1.3947,-1.6457,7.7567,-1.3607,0.52556,0.0021444,0.1,0.56,0
0.11519,0.033633,0.89597,-1.0684,-1.3287,-1.6151,0.018945,0,0,0.7107,0.37231,0,0.049256,0,0,0.94601,-0.02608,0,0.94639,-1.0671,-1.3301,-1.6151,4.141,-1.3374,0.47476,-0.00038141,0.12,0.56,0
0.12887,0.034079,0.87691,-1.0761,-1.2802,-1.5838,0.0035045,0,0,0.65999,0.39466,0,0.0091117,0,0,0.9582,-0.020168,0,0.95843,-1.0761,-1.2803,-1.5838,0.98343,-1.3134,0.44251,-0.0014731,0.14,0.56,0
0.14159,0.033856,0.85764,-1.0818,-1.2412,-1.5546,-0.0012557,0,0,0.61458,0.40734,0,-0.0032649,0,0,0.96654,-0.017872,0,0.96671,-1.0818,-1.2412,-1.5546,-0.4513,-1.2925,0.41659,-0.001964,0.16,0.56,0
0.15345,0.033304,0.83825,-1.0859,-1.2095,-1.5269,0.00044425,0,0,0.57321,0.41262,0,0.001155,0,0,0.97166,-0.017992,0,0.97183,-1.0859,-1.2095,-1.5269,0.20605,-1.2741,0.39397,-0.002131,0.18,0.56,0
0.16452,0.032641,0.81878,-1.0885,-1.1837,-1.5004,0.0055538,0,0,0.53556,0.41174,0,0.01444,0,0,0.97373,-0.019571,0,0.97393,-1.0881,-1.184,-1.5004,3.3258,-1.2575,0.37369,-0.0020969,0.2,0.56,0
0.17487,0.031975,0.7993,-1.0892,-1.163,-1.4749,0.011765,0,0,0.50152,0.40552,0,0.030588,0,0,0.97273,-0.021867,0,0.97298,-1.0873,-1.1648,-1.4749,8.8358,-1.2424,0.35526,-0.0019384,0.22,0.56,0
0.18458,0.031321,0.77987,-1.0879,-1.1472,-1.4504,0.017203,0,0,0.47124,0.39415,0,0.044728,0,0,0.96837,-0.024263,0,0.96867,-1.0833,-1.1519,-1.4504,15.061,-1.2285,0.33809,-0.001713,0.24,0.56,0
0.19372,0.030612,0.76056,-1.0843,-1.137,-1.427,0.019978,0,0,0.44544,0.37694,0,0.051944,0,0,0.96,-0.026133,0,0.96037,-1.0776,-1.1437,-1.427,18.585,-1.2161,0.32144,-0.0014654,0.26,0.56,0
0.2024,0.029695,0.74147,-1.0772,-1.1345,-1.405,0.017442,0,0,0.42612,0.35162,0,0.04535,0,0,0.94634,-0.026736,0,0.94674,-1.0723,-1.1394,-1.405,15.664,-1.2056,0.30472,-0.0012191,0.28,0.56,0
0.21077,0.028292,0.72271,-1.0581,-1.1418,-1.3827,0.0081458,0,0,0.42199,0.31313,0,0.021179,0,0,0.92414,-0.025259,0,0.92456,-1.0573,-1.1426,-1.3827,5.5049,-1.1942,0.29223,-0.0009231,0.3,0.56,0
0.21928,0.026251,0.7045,-1.0299,-1.1825,-1.3682,-0.004098,0,0,0.43978,0.24144,0,-0.010655,0,0,0.8906,-0.021589,0,0.89111,-1.0298,-1.1826,-1.3682,-1.5374,-1.1936,0.29353,-0.00021693,0.32,0.56,0
0.22836,0.023869,0.68709,-0.99858,-1.2587,-1.3643,0.0024722,0,0,0.47539,0.13726,0,0.0064276,0,0,0.84641,-0.030551,0,0.84731,-0.99855,-1.2587,-1.3643,0.54451,-1.2072,0.32601,0.0011708,0.34,0.56,0
0.23829,0.021992,0.67065,-0.96048,-1.3171,-1.3539,0.0296,0,0,0.51148,0.047845,0,0.07696,0,0,0.79702,-0.055323,0,0.79926,-0.95804,-1.3196,-1.3539,4.7123,-1.2105,0.37987,0.0027379,0.36,0.56,0
0.24882,0.021175,0.65521,-0.91853,-1.3473,-1.335,0.065675,0,0,0.54136,-0.016083,0,0.17075,0,0,0.74547,-0.096895,0,0.75187,-0.9087,-1.3572,-1.335,8.5154,-1.2003,0.43779,0.0042721,0.38,0.56,0
0.25995,0.021145,0.64083,-0.88376,-1.3783,-1.3194,0.091784,0,0,0.56639,-0.076486,0,0.23864,0,0,0.69006,-0.14106,0,0.70486,-0.86727,-1.3948,-1.3194,10.183,-1.1938,0.49415,0.005715,0.4,0.56,0
0.27147,0.021214,0.6276,-0.84357,-1.1359,-1.0645,0.093316,0,0,0.28638,-0.12365,0,0.35839,0,0,0.63791,-0.12201,0,0.65089,-0.80056,-1.1789,-1.0645,23.845,-1.0147,0.34341,0.0031157,0.42,0.56,0
0.2714,0.025469,0.60302,-0.81189,-0.88856,-0.81164,0.082691,0,0,-0.00062834,-0.19997,0,0.42999,0,0,0.60142,-0.083344,0,0.60734,-0.75908,-0.94137,-0.81164,32.564,-0.83736,0.16251,-0.00014519,0.44,0.56,0
0.27145,0.028506,0.57949,-0.79515,-0.88288,-0.79315,0.067003,0,0,-0.0051841,-0.23329,0,0.34841,0,0,0.5794,-0.071787,0,0.58386,-0.75893,-0.9191,-0.79315,28.394,-0.82373,0.1461,-0.00013101,0.46,0.56,0
0.2712,0.030463,0.55667,-0.7844,-0.86624,-0.77353,0.053299,0,0,-0.028264,-0.24106,0,0.27715,0,0,0.56588,-0.058824,0,0.56892,-0.75812,-0.89252,-0.77353,26.242,-0.80806,0.12739,-0.00010097,0.48,0.56,0
0.27032,0.031565,0.53422,-0.77907,-0.84651,-0.75478,0.04218,0,0,-0.063137,-0.23849,0,0.21934,0,0,0.55926,-0.047541,0,0.56126,-0.75879,-0.86679,-0.75478,25.679,-0.79345,0.11006,-6.8171e-05,0.5,0.56,0
0.26867,0.032039,0.51193,-0.77609,-0.82458,-0.73617,0.033536,0,0,-0.10379,-0.22988,0,0.17439,0,0,0.55654,-0.038384,0,0.55785,-0.75895,-0.84172,-0.73617,27.066,-0.77894,0.096205,-3.7228e-05,0.52,0.56,0
0.26617,0.032045,0.48969,-0.77456,-0.80169,-0.71772,0.026967,0,0,-0.14778,-0.21832,0,0.14023,0,0,0.55594,-0.03122,0,0.55681,-0.75794,-0.81831,-0.71772,31.649,-0.76466,0.087694,-1.1732e-05,0.54,0.56,0
0.26276,0.031719,0.46746,-0.77372,-0.77859,-0.69942,0.02215,0,0,-0.19317,-0.20584,0,0.11518,0,0,0.55641,-0.025728,0,0.557,-0.75387,-0.79844,-0.69942,41.86,-0.75057,0.085894,5.5919e-06,0.56,0.56,0
0.25844,0.031165,0.44518,-0.77305,-0.75579,-0.68124,0.018691,0,0,-0.2387,-0.19381,0,0.097194,0,0,0.55732,-0.021536,0,0.55773,-0.74383,-0.78501,-0.68124,57.395,-0.73669,0.090498,1.3257e-05,0.58,0.56,0
0.25321,0.030466,0.42287,-0.77227,-0.73354,-0.66318,0.016201,0,0,-0.28365,-0.18293,0,0.084244,0,0,0.55832,-0.0183,0,0.55862,-0.72765,-0.77815,-0.66318,70.045,-0.723,0.099818,1.0656e-05,0.6,0.56,0
0.24709,0.029679,0.40052,-0.77124,-0.71191,-0.6452,0.014337,0,0,-0.32769,-0.17344,0,0.074553,0,0,0.55923,-0.015729,0,0.55945,-0.70863,-0.77452,-0.6452,77.102,-0.70945,0.112,-2.3822e-06,0.62,0.56,0
0.2401,0.02884,0.37813,-0.76991,-0.69089,-0.62731,0.012835,0,0,-0.37077,-0.16532,0,0.066744,0,0,0.55998,-0.0136,0,0.56014,-0.68886,-0.77194,-0.62731,81.002,-0.69604,0.12572,-2.5967e-05,0.64,0.56,0
0.23226,0.027973,0.35572,-0.76832,-0.67039,-0.60947,0.011505,0,0,-0.41299,-0.1584,0,0.059824,0,0,0.56054,-0.011747,0,0.56066,-0.66906,-0.76965,-0.60947,83.388,-0.68273,0.14022,-6.0337e-05,0.66,0.56,0
0.22358,0.027094,0.33329,-0.7665,-0.65034,-0.5917,0.010211,0,0,-0.45448,-0.15249,0,0.053098,0,0,0.56091,-0.010044,0,0.561,-0.64946,-0.76739,-0.5917,85.014,-0.66951,0.1551,-0.00010592,0.68,0.56,0
0.21408,0.026209,0.31085,-0.7645,-0.63067,-0.57398,0.0088577,0,0,-0.49538,-0.1474,0,0.04606,0,0,0.56112,-0.0083877,0,0.56119,-0.63009,-0.76509,-0.57398,86.23,-0.65638,0.17014,-0.00016334,0.7,0.56,0
0.20377,0.025322,0.2884,-0.76239,-0.6113,-0.55631,0.0073659,0,0,-0.53583,-0.14298,0,0.038303,0,0,0.56118,-0.0066898,0,0.56122,-0.61094,-0.76275,-0.55631,87.216,-0.64333,0.18527,-0.00023342,0.72,0.56,0
0.19265,0.024433,0.26595,-0.76022,-0.59217,-0.5387,0.0056628,0,0,-0.57597,-0.13905,0,0.029446,0,0,0.5611,-0.0048593,0,0.56112,-0.59198,-0.76041,-0.5387,88.072,-0.63036,0.20046,-0.00031725,0.74,0.56,0
0.18073,0.02354,0.24351,-0.75807,-0.57323,-0.52115,0.0036721,0,0,-0.616,-0.13543,0,0.019095,0,0,0.5609,-0.0027924,0,0.56091,-0.57316,-0.75814,-0.52115,88.862,-0.61748,0.21574,-0.00041644,0.76,0.56,0
0.16801,0.022641,0.22108,-0.75605,-0.5544,-0.50367,0.0013101,0,0,-0.65618,-0.13188,0,0.0068128,0,0,0.56062,-0.00035865,0,0.56062,-0.55439,-0.75606,-0.50367,89.628,-0.60471,0.23124,-0.00053352,0.78,0.56,0
0.15448,0.021731,0.19866,-0.75437,-0.53557,-0.48631,-0.0015121,0,0,-0.69694,-0.12807,0,-0.0078628,0,0,0.56031,0.002616,0,0.56032,-0.53556,-0.75438,-0.48631,-89.604,-0.59208,0.24715,-0.00067278,0.8,0.56,0
0.14013,0.020808,0.17625,-0.75332,-0.51659,-0.4691,-0.0048707,0,0,-0.73897,-0.12347,0,-0.025327,0,0,0.56013,0.0063697,0,0.56017,-0.51649,-0.75342,-0.4691,-88.822,-0.57967,0.26384,-0.00084162,0.82,0.56,0
0.12492,0.019874,0.15385,-0.75342,-0.49726,-0.45213,-0.0087858,0,0,-0.78336,-0.11733,0,-0.045686,0,0,0.56037,0.011225,0,0.56048,-0.49695,-0.75372,-0.45213,-88.038,-0.5676,0.28187,-0.0010528,0.84,0.56,0
0.1088,0.018943,0.13142,-0.75543,-0.47732,-0.43554,-0.013119,0,0,-0.83173,-0.10864,0,-0.068221,0,0,0.56164,0.017593,0,0.56191,-0.4767,-0.75605,-0.43554,-87.305,-0.5561,0.30204,-0.001327,0.86,0.56,0
0.091655,0.018059,0.10892,-0.76033,-0.45652,-0.41951,-0.017465,0,0,-0.88613,-0.096203,0,-0.090817,0,0,0.5652,0.025909,0,0.56579,-0.45552,-0.76133,-0.41951,-86.721,-0.54546,0.32532,-0.0016955,0.88,0.56,0
0.073353,0.017297,0.086208,-0.76933,-0.43499,-0.4044,-0.020683,0,0,-0.94881,-0.079534,0,-0.10755,0,0,0.57356,0.036309,0,0.57471,-0.43372,-0.7706,-0.4044,-86.474,-0.53624,0.35246,-0.0021964,0.9,0.56,0
0.053703,0.016831,0.063034,-0.77917,-0.4114,-0.38869,-0.02194,0,0,-1.0152,-0.059058,0,-0.11409,0,0,0.58812,0.046765,0,0.59006,-0.4101,-0.78048,-0.38869,-86.598,-0.52642,0.38153,-0.0028221,0.92,0.56,0
0.032743,0.01661,0.039159,-0.7913,-0.41994,-0.39274,-0.019622,0,0,-0.78012,-0.047148,0,-0.076503,0,0,0.61191,0.068941,0,0.61635,-0.41891,-0.79233,-0.39274,-86.98,-0.53466,0.38726,-0.0029366,0.94,0.56,0
0.022498,0.017407,0.02662,-0.81249,-0.45422,-0.40664,-0.020138,0,0,-0.52762,-0.061862,0,-0.052358,0,0,0.64222,0.074204,0,0.64663,-0.45309,-0.81362,-0.40664,-86.793,-0.55778,0.38586,-0.002807,0.96,0.56,0
0.011638,0.017837,0.01347,-0.82131,-0.42933,-0.38866,-0.012896,0,0,-0.56244,-0.052865,0,-0.033529,0,0,0.66551,0.036547,0,0.66635,-0.4289,-0.82173,-0.38866,-88.118,-0.54643,0.41442,-0.0035395,0.98,0.56,0
0,0.017915,0,-0.81171,-0.40194,-0.36409,0.0014956,0,0,-0.5819,-0.049196,0,0.0038885,0,0,0.67349,1.5612e-17,0,0.67332,-0.40193,-0.81171,-0.36409,89.791,-0.52591,0.42995,-0.0039757,1,0.56,0
0,0.017717,1,-0.95988,-1.8821,-1.8526,0.015993,0,0,1.1605,-0.038323,0,0.041582,0,0,0.76475,-8.292e-16,0,0.76456,-0.9596,-1.8823,-1.8526,0.99327,-1.5648,0.90823,0.038338,0,0.58,0
0.02321,0.018549,0.98471,-0.94006,-1.8459,-1.8205,0.039609,0,0,1.1446,-0.033056,0,0.10298,0,0,0.77304,-0.040803,0,0.77392,-0.93833,-1.8477,-1.8205,2.4989,-1.5355,0.89606,0.036837,0.02,0.58,0
0.045783,0.021581,0.96908,-0.9713,-1.8175,-1.8057,0.091889,0,0,1.0848,-0.015355,0,0.23891,0,0,0.80886,-0.088258,0,0.81356,-0.96143,-1.8274,-1.8057,6.1263,-1.5315,0.85534,0.03207,0.04,0.58,0
0.066601,0.027318,0.95235,-1.0017,-1.666,-1.7527,0.14299,0,0,0.97626,0.11263,0,0.37178,0,0,0.86459,-0.1377,0,0.87689,-0.97223,-1.6955,-1.7527,11.646,-1.4735,0.75349,0.021545,0.06,0.58,0
0.084834,0.034397,0.93449,-1.0107,-1.4083,-1.6602,0.11125,0,0,0.84439,0.32743,0,0.28926,0,0,0.91668,-0.079625,0,0.91987,-0.98165,-1.4373,-1.6602,14.614,-1.3597,0.59905,0.0061126,0.08,0.58,0
0.10038,0.039111,0.91568,-1.0592,-1.3589,-1.6411,0.059534,0,0,0.75652,0.36685,0,0.15479,0,0,0.94656,-0.052344,0,0.94798,-1.0478,-1.3703,-1.6411,10.832,-1.3531,0.51449,0.0010513,0.1,0.58,0
0.11509,0.041235,0.89663,-1.057,-1.3103,-1.6068,0.025905,0,0,0.71483,0.38543,0,0.067354,0,0,0.95681,-0.036976,0,0.95752,-1.0543,-1.313,-1.6068,5.7782,-1.3247,0.47879,-0.00062128,0.12,0.58,0
0.12897,0.041999,0.87741,-1.0599,-1.2726,-1.5772,0.011053,0,0,0.67241,0.39594,0,0.028738,0,0,0.9641,-0.028107,0,0.96451,-1.0594,-1.2732,-1.5772,2.9672,-1.3032,0.4507,-0.0013925,0.14,0.58,0
0.14199,0.041948,0.85807,-1.0649,-1.2405,-1.5497,0.0054825,0,0,0.63023,0.40193,0,0.014254,0,0,0.9692,-0.023228,0,0.96948,-1.0647,-1.2407,-1.5497,1.7864,-1.285,0.42522,-0.0017928,0.16,0.58,0
0.15418,0.041461,0.83864,-1.0698,-1.2128,-1.5234,0.0056103,0,0,0.5897,0.40379,0,0.014587,0,0,0.9723,-0.020836,0,0.97252,-1.0696,-1.2131,-1.5234,2.2431,-1.2687,0.4018,-0.0019568,0.18,0.58,0
0.16558,0.040766,0.81918,-1.0733,-1.1888,-1.4978,0.0087161,0,0,0.55187,0.40167,0,0.022662,0,0,0.9733,-0.019865,0,0.9735,-1.0726,-1.1895,-1.4978,4.29,-1.2533,0.38045,-0.0019549,0.2,0.58,0
0.17625,0.039977,0.79971,-1.0747,-1.1682,-1.4726,0.012784,0,0,0.51724,0.39571,0,0.033239,0,0,0.97201,-0.019453,0,0.9722,-1.073,-1.1699,-1.4726,7.6483,-1.2385,0.36102,-0.0018424,0.22,0.58,0
0.18627,0.039113,0.7803,-1.0739,-1.1509,-1.4477,0.016041,0,0,0.48599,0.38591,0,0.041706,0,0,0.96815,-0.01879,0,0.96833,-1.0707,-1.1541,-1.4477,11.311,-1.2242,0.34304,-0.0016673,0.24,0.58,0
0.19569,0.038097,0.76099,-1.0711,-1.1374,-1.4235,0.016466,0,0,0.45818,0.372,0,0.042812,0,0,0.96123,-0.016946,0,0.96139,-1.0672,-1.1412,-1.4235,13.208,-1.2107,0.32567,-0.0014698,0.26,0.58,0
0.2046,0.036735,0.74185,-1.0667,-1.1289,-1.4005,0.011478,0,0,0.43399,0.35312,0,0.029843,0,0,0.95032,-0.012621,0,0.95042,-1.0646,-1.1309,-1.4005,10.127,-1.1987,0.30813,-0.0012711,0.28,0.58,0
0.21305,0.03471,0.72297,-1.0616,-1.1296,-1.3803,-0.0059918,0,0,0.41439,0.32591,0,-0.015579,0,0,0.93349,-0.0036082,0,0.93352,-1.0611,-1.1302,-1.3803,-4.9931,-1.1905,0.29095,-0.0010284,0.3,0.58,0
0.22117,0.031182,0.70451,-1.0122,-1.1314,-1.3476,-0.035631,0,0,0.43599,0.28102,0,-0.092639,0,0,0.89466,0.014763,0,0.8947,-1.0024,-1.1413,-1.3476,-15.435,-1.1638,0.30086,-0.00046248,0.32,0.58,0
0.23049,0.026359,0.68719,-0.98821,-1.286,-1.3695,-0.05414,0,0,0.49561,0.10848,0,-0.14077,0,0,0.83205,0.056451,0,0.83578,-0.97868,-1.2955,-1.3695,-9.9908,-1.2146,0.35957,0.0020517,0.34,0.58,0
0.241,0.022505,0.67122,-0.94499,-1.3775,-1.368,-0.0079931,0,0,0.54987,-0.012381,0,-0.020782,0,0,0.76242,-0.0032674,0,0.76246,-0.94484,-1.3776,-1.368,-1.0584,-1.2302,0.42805,0.0040211,0.36,0.58,0
0.25249,0.020368,0.65669,-0.89465,-1.3836,-1.3402,0.035107,0,0,0.57918,-0.056494,0,0.091278,0,0,0.70478,-0.054333,0,0.70693,-0.89214,-1.3861,-1.3402,4.0857,-1.2062,0.47269,0.005252,0.38,0.58,0
0.26416,0.019439,0.64303,-0.87032,-1.3937,-1.3222,0.05974,0,0,0.58748,-0.092862,0,0.15532,0,0,0.66219,-0.089715,0,0.66846,-0.86359,-1.4004,-1.3222,6.4302,-1.1954,0.50231,0.0059813,0.4,0.58,0
0.27599,0.018891,0.6302,-0.83688,-1.1294,-1.0625,0.067993,0,0,0.29112,-0.11589,0,0.26484,0,0,0.62629,-0.081408,0,0.63224,-0.80755,-1.1587,-1.0625,21.799,-1.0096,0.32192,0.0031371,0.42,0.58,0
0.27581,0.021839,0.60576,-0.81368,-0.87557,-0.80966,0.064693,0,0,-0.010471,-0.17137,0,0.3364,0,0,0.60202,-0.059164,0,0.60499,-0.77291,-0.91634,-0.80966,32.219,-0.83297,0.12904,-8.0929e-05,0.44,0.58,0
0.27557,0.024239,0.58204,-0.80015,-0.86914,-0.79181,0.056535,0,0,-0.0217,-0.20106,0,0.29398,0,0,0.58621,-0.056881,0,0.589,-0.76842,-0.90087,-0.79181,29.306,-0.82037,0.12244,-8.281e-05,0.46,0.58,0
0.27494,0.025956,0.55886,-0.79126,-0.85555,-0.77347,0.047313,0,0,-0.046231,-0.2134,0,0.24603,0,0,0.57487,-0.050585,0,0.5771,-0.7662,-0.8806,-0.77347,27.903,-0.80676,0.11095,-6.9122e-05,0.48,0.58,0
0.27372,0.027057,0.53605,-0.7855,-0.83769,-0.75498,0.039004,0,0,-0.079355,-0.21503,0,0.20282,0,0,0.56772,-0.043419,0,0.56938,-0.76467,-0.85852,-0.75498,28.11,-0.79272,0.099051,-4.8306e-05,0.5,0.58,0
0.27176,0.027648,0.51345,-0.78196,-0.81769,-0.73662,0.031987,0,0,-0.11789,-0.21078,0,0.16633,0,0,0.56374,-0.036718,0,0.56493,-0.76319,-0.83646,-0.73662,30.409,-0.77876,0.089566,-2.6249e-05,0.52,0.58,0
0.269,0.027838,0.49095,-0.77966,-0.79648,-0.71832,0.026309,0,0,-0.15949,-0.20322,0,0.13681,0,0,0.5618,-0.030931,0,0.56265,-0.76045,-0.81569,-0.71832,36.138,-0.76482,0.08458,-7.1662e-06,0.54,0.58,0
0.26539,0.027721,0.4685,-0.77807,-0.77476,-0.7001,0.021842,0,0,-0.20273,-0.1941,0,0.11358,0,0,0.56107,-0.026127,0,0.56168,-0.75451,-0.79832,-0.7001,47.172,-0.75098,0.085226,5.9006e-06,0.56,0.58,0
0.26089,0.02738,0.44607,-0.77682,-0.75299,-0.68197,0.018397,0,0,-0.24659,-0.18463,0,0.095663,0,0,0.56102,-0.022209,0,0.56145,-0.74298,-0.78682,-0.68197,61.466,-0.73726,0.091204,1.0875e-05,0.58,0.58,0
0.25552,0.02688,0.42362,-0.77563,-0.73144,-0.66393,0.015741,0,0,-0.29042,-0.17552,0,0.081854,0,0,0.56129,-0.019012,0,0.56161,-0.72641,-0.78067,-0.66393,72.267,-0.72367,0.10118,6.4649e-06,0.6,0.58,0
0.24928,0.02627,0.40116,-0.77438,-0.71026,-0.64597,0.013648,0,0,-0.33386,-0.16714,0,0.070969,0,0,0.56167,-0.016367,0,0.56191,-0.70747,-0.77717,-0.64597,78.471,-0.7102,0.11369,-8.1402e-06,0.62,0.58,0
0.24217,0.025588,0.37869,-0.773,-0.68948,-0.62809,0.011918,0,0,-0.37677,-0.15962,0,0.061975,0,0,0.56206,-0.014118,0,0.56224,-0.68781,-0.77467,-0.62809,82.036,-0.69685,0.12766,-3.3556e-05,0.64,0.58,0
0.23421,0.024859,0.3562,-0.77148,-0.66908,-0.61027,0.010393,0,0,-0.41915,-0.15292,0,0.054046,0,0,0.56241,-0.012132,0,0.56254,-0.66804,-0.77252,-0.61027,84.262,-0.68361,0.14244,-7.0404e-05,0.66,0.58,0
0.2254,0.024099,0.3337,-0.76984,-0.64903,-0.59251,0.008951,0,0,-0.46106,-0.14696,0,0.046545,0,0,0.56268,-0.010301,0,0.56277,-0.64837,-0.7705,-0.59251,85.785,-0.67046,0.15766,-0.00011943,0.68,0.58,0
0.21576,0.023319,0.31118,-0.76812,-0.62927,-0.57481,0.0074972,0,0,-0.50261,-0.1416,0,0.038985,0,0,0.56288,-0.00853,0,0.56294,-0.62887,-0.76853,-0.57481,86.918,-0.6574,0.17314,-0.00018158,0.7,0.58,0
0.2053,0.022525,0.28867,-0.76639,-0.60976,-0.55718,0.0059584,0,0,-0.54395,-0.13671,0,0.030984,0,0,0.56301,-0.0067312,0,0.56305,-0.60953,-0.76662,-0.55718,87.825,-0.64444,0.18879,-0.00025806,0.72,0.58,0
0.19401,0.021723,0.26614,-0.7647,-0.59043,-0.53961,0.0042736,0,0,-0.58524,-0.13212,0,0.022223,0,0,0.56311,-0.0048186,0,0.56313,-0.59032,-0.76481,-0.53961,88.596,-0.63158,0.20461,-0.00035052,0.74,0.58,0
0.18189,0.020913,0.24362,-0.76316,-0.57121,-0.52212,0.0023917,0,0,-0.6267,-0.12764,0,0.012437,0,0,0.5632,-0.0026982,0,0.5632,-0.57118,-0.76319,-0.52212,89.286,-0.61883,0.22067,-0.00046122,0.76,0.58,0
0.16894,0.020097,0.22109,-0.76189,-0.55205,-0.50472,0.00027412,0,0,-0.66863,-0.12304,0,0.0014254,0,0,0.56334,-0.00026177,0,0.56334,-0.55205,-0.76189,-0.50472,89.925,-0.60622,0.23707,-0.00059348,0.78,0.58,0
0.15514,0.01928,0.19855,-0.76108,-0.53282,-0.48745,-0.0020937,0,0,-0.71146,-0.11797,0,-0.010887,0,0,0.56364,0.0026192,0,0.56364,-0.5328,-0.7611,-0.48745,-89.475,-0.59378,0.25403,-0.0007523,0.8,0.58,0
0.14048,0.018468,0.176,-0.761,-0.51342,-0.47032,-0.0046768,0,0,-0.75577,-0.11204,0,-0.024319,0,0,0.56427,0.0060934,0,0.5643,-0.51333,-0.76109,-0.47032,-88.918,-0.58158,0.27183,-0.00094514,0.82,0.58,0
0.12491,0.017676,0.15341,-0.76199,-0.4937,-0.45341,-0.0073431,0,0,-0.80231,-0.10475,0,-0.038184,0,0,0.56556,0.010315,0,0.56565,-0.4935,-0.76219,-0.45341,-88.433,-0.5697,0.29082,-0.0011827,0.84,0.58,0
0.10839,0.016936,0.13075,-0.76441,-0.47355,-0.43676,-0.0098044,0,0,-0.85188,-0.095649,0,-0.050983,0,0,0.56803,0.015385,0,0.56824,-0.47322,-0.76474,-0.43676,-88.072,-0.55824,0.31135,-0.0014787,0.86,0.58,0
0.090837,0.016297,0.10797,-0.76849,-0.45301,-0.42043,-0.011526,0,0,-0.90496,-0.084694,0,-0.059934,0,0,0.57251,0.021192,0,0.57291,-0.45259,-0.76892,-0.42043,-87.91,-0.54731,0.33357,-0.0018467,0.88,0.58,0
0.072189,0.015837,0.08495,-0.77361,-0.43221,-0.40422,-0.011934,0,0,-0.96041,-0.072774,0,-0.062056,0,0,0.57979,0.02695,0,0.58043,-0.43179,-0.77403,-0.40422,-88,-0.53668,0.35682,-0.0022863,0.9,0.58,0
0.05242,0.015605,0.061582,-0.77986,-0.41325,-0.38872,-0.010636,0,0,-1.017,-0.063767,0,-0.055308,0,0,0.58989,0.030215,0,0.5907,-0.41294,-0.78016,-0.38872,-88.34,-0.52728,0.37991,-0.0027777,0.92,0.58,0
0.031511,0.015575,0.037759,-0.78423,-0.42359,-0.39067,-0.0081856,0,0,-0.77301,-0.057069,0,-0.032881,0,0,0.60429,0.042761,0,0.60603,-0.42341,-0.78442,-0.39067,-88.703,-0.53283,0.3786,-0.0027211,0.94,0.58,0
0.0215,0.016085,0.025499,-0.79382,-0.45269,-0.39945,-0.0052274,0,0,-0.51268,-0.069211,0,-0.013591,0,0,0.62259,0.045761,0,0.62432,-0.45261,-0.7939,-0.39945,-89.122,-0.54866,0.37074,-0.0024367,0.96,0.58,0
0.011004,0.016477,0.012855,-0.7978,-0.44048,-0.38434,-0.0035356,0,0,-0.5375,-0.072982,0,-0.0091925,0,0,0.63748,0.025196,0,0.63793,-0.44044,-0.79784,-0.38434,-89.433,-0.54087,0.38849,-0.0028009,0.98,0.58,0
0,0.016611,0,-0.78236,-0.41479,-0.35914,0.0025715,0,0,-0.55018,-0.072337,0,0.006686,0,0,0.64276,-8.6736e-19,0,0.64267,-0.41477,-0.78238,-0.35914,89.599,-0.51876,0.39834,-0.003034,1,0.58,0
0,0.016671,1,-0.96908,-1.9187,-1.8663,0.018111,0,0,1.1664,-0.068088,0,0.047089,0,0,0.71771,-4.8572e-17,0,0.71744,-0.96874,-1.9191,-1.8663,1.0922,-1.5847,0.92509,0.040216,0,0.6,0
0.023329,0.017612,0.98565,-0.95655,-1.8931,-1.8405,0.042897,0,0,1.1492,-0.068337,0,0.11153,0,0,0.71958,-0.048818,0,0.72088,-0.95459,-1.8951,-1.8405,2.617,-1.5634,0.91444,0.038802,0.02,0.6,0
0.045968,0.020565,0.97122,-0.97194,-1.8816,-1.8273,0.12665,0,0,1.1119,-0.070605,0,0.32929,0,0,0.73469,-0.11074,0,0.74198,-0.95464,-1.8989,-1.8273,7.7803,-1.5603,0.91056,0.037967,0.04,0.6,0
0.067806,0.029335,0.95626,-0.90988,-1.5252,-1.4477,0.19973,0,0,0.90033,-0.18136,0,0.73113,0,0,0.66608,-0.17497,0,0.68857,-0.85022,-1.5849,-1.4477,16.905,-1.2943,0.68084,0.018533,0.06,0.6,0
0.083897,0.042012,0.93625,-0.91586,-1.3342,-1.3772,0.12752,0,0,0.79969,-0.078618,0,0.46966,0,0,0.73901,-0.086293,0,0.74421,-0.87622,-1.3739,-1.3772,16.291,-1.2091,0.53834,0.0035423,0.08,0.6,0
0.099793,0.046686,0.91684,-0.90027,-1.3038,-1.3489,0.053935,0,0,0.77753,-0.072184,0,0.20706,0,0,0.72751,-0.057906,0,0.73003,-0.89263,-1.3114,-1.3489,7.9558,-1.1843,0.48608,0.0012214,0.1,0.6,0
0.115,0.04905,0.89745,-0.89982,-1.2748,-1.3255,0.029507,0,0,0.73778,-0.063539,0,0.11545,0,0,0.72769,-0.041758,0,0.72903,-0.89733,-1.2772,-1.3255,4.8454,-1.1667,0.45894,0.00034956,0.12,0.6,0
0.12931,0.049917,0.87803,-0.90561,-1.2499,-1.3052,0.016345,0,0,0.69256,-0.054137,0,0.065575,0,0,0.72896,-0.032013,0,0.72976,-0.90478,-1.2507,-1.3052,2.9673,-1.1536,0.43255,-0.00015775,0.14,0.6,0
0.1427,0.049933,0.85857,-0.91133,-1.2258,-1.2851,0.010699,0,0,0.64779,-0.045476,0,0.04366,0,0,0.73036,-0.025988,0,0.73089,-0.91094,-1.2262,-1.2851,2.173,-1.1407,0.40829,-0.00048327,0.16,0.6,0
0.15522,0.049456,0.83908,-0.91569,-1.2028,-1.2649,0.0093301,0,0,0.60525,-0.03862,0,0.03788,0,0,0.73126,-0.022218,0,0.73165,-0.91535,-1.2032,-1.2649,2.198,-1.1278,0.38604,-0.00067181,0.18,0.6,0
0.16691,0.048708,0.81957,-0.91787,-1.1812,-1.2444,0.010313,0,0,0.56598,-0.034225,0,0.040998,0,0,0.73134,-0.019679,0,0.73163,-0.91736,-1.1817,-1.2444,2.9143,-1.1145,0.36608,-0.00076023,0.2,0.6,0
0.17786,0.047803,0.80008,-0.91753,-1.1609,-1.2236,0.012021,0,0,0.53047,-0.032586,0,0.046844,0,0,0.73035,-0.01751,0,0.73058,-0.91667,-1.1617,-1.2236,4.0758,-1.1006,0.34837,-0.00077879,0.22,0.6,0
0.18813,0.046758,0.78062,-0.91455,-1.1419,-1.2024,0.012929,0,0,0.49893,-0.033758,0,0.049596,0,0,0.72816,-0.014859,0,0.72832,-0.91334,-1.1431,-1.2024,5.1684,-1.0863,0.33268,-0.0007544,0.24,0.6,0
0.19781,0.045492,0.76124,-0.90905,-1.1243,-1.1809,0.011378,0,0,0.47127,-0.03762,0,0.042912,0,0,0.72462,-0.010705,0,0.7247,-0.90793,-1.1254,-1.1809,5.2718,-1.0714,0.31846,-0.00070711,0.26,0.6,0
0.20698,0.043819,0.74198,-0.90134,-1.1081,-1.1593,0.0046822,0,0,0.44714,-0.043895,0,0.016788,0,0,0.71976,-0.0035728,0,0.71975,-0.90109,-1.1083,-1.1593,2.607,-1.0562,0.30537,-0.00065166,0.28,0.6,0
0.2157,0.041328,0.72286,-0.89493,-1.0956,-1.1393,-0.010338,0,0,0.42358,-0.051887,0,-0.040791,0,0,0.71364,0.0092341,0,0.71369,-0.89408,-1.0965,-1.1393,-4.837,-1.0433,0.29184,-0.00054926,0.3,0.6,0
0.22392,0.037491,0.70391,-0.89532,-1.0844,-1.1219,-0.062204,0,0,0.39268,-0.060463,0,-0.22826,0,0,0.713,0.033563,0,0.71365,-0.86665,-1.1131,-1.1219,-21.431,-1.0339,0.29749,-0.00018024,0.32,0.6,0
0.2314,0.028207,0.68483,-0.84758,-1.1802,-1.122,-0.12099,0,0,0.45021,-0.13964,0,-0.44534,0,0,0.63177,0.11199,0,0.64126,-0.80797,-1.2198,-1.122,-18.368,-1.0499,0.37743,0.0028371,0.34,0.6,0
0.24345,0.021497,0.67078,-0.90812,-1.4298,-1.3722,-0.051775,0,0,0.60326,-0.074968,0,-0.13462,0,0,0.68624,0.031791,0,0.68607,-0.90303,-1.4349,-1.3722,-5.6131,-1.2367,0.50345,0.006212,0.36,0.6,0
0.25554,0.018915,0.65738,-0.88254,-1.4183,-1.3476,0.012642,0,0,0.60461,-0.091835,0,0.03287,0,0,0.65902,-0.023452,0,0.65927,-0.88224,-1.4186,-1.3476,1.3511,-1.2161,0.5046,0.0061615,0.38,0.6,0
0.26764,0.01743,0.64442,-0.86154,-1.4091,-1.3256,0.037731,0,0,0.60329,-0.10853,0,0.098099,0,0,0.63585,-0.056746,0,0.63841,-0.85895,-1.4117,-1.3256,3.9234,-1.1987,0.51511,0.0063643,0.4,0.6,0
0.27967,0.016578,0.63194,-0.83412,-1.1325,-1.0639,0.049929,0,0,0.29684,-0.11885,0,0.19716,0,0,0.61419,-0.05551,0,0.617,-0.81471,-1.1519,-1.0639,19.357,-1.0102,0.31062,0.0032098,0.42,0.6,0
0.27951,0.018615,0.60776,-0.8146,-0.86934,-0.80906,0.051423,0,0,-0.014403,-0.15672,0,0.2674,0,0,0.59881,-0.043717,0,0.60043,-0.78372,-0.90022,-0.80906,30.988,-0.831,0.10613,-4.9789e-05,0.44,0.6,0
0.27909,0.020464,0.58404,-0.80396,-0.86106,-0.79153,0.047404,0,0,-0.03233,-0.1808,0,0.2465,0,0,0.58798,-0.04496,0,0.58971,-0.77717,-0.88785,-0.79153,29.47,-0.81885,0.10424,-5.448e-05,0.46,0.6,0
0.27822,0.021927,0.56072,-0.79608,-0.84759,-0.77346,0.041525,0,0,-0.058807,-0.19275,0,0.21593,0,0,0.57934,-0.042666,0,0.58092,-0.77297,-0.8707,-0.77346,29.094,-0.80571,0.097486,-4.7578e-05,0.48,0.6,0
0.27674,0.022964,0.53769,-0.7906,-0.83079,-0.75526,0.035401,0,0,-0.091876,-0.19637,0,0.18409,0,0,0.57313,-0.038605,0,0.57443,-0.76999,-0.8514,-0.75526,30.21,-0.79222,0.089686,-3.3709e-05,0.5,0.6,0
0.27454,0.023608,0.51487,-0.78678,-0.81189,-0.73703,0.029797,0,0,-0.12934,-0.19462,0,0.15494,0,0,0.56903,-0.034033,0,0.57004,-0.767,-0.83167,-0.73703,33.576,-0.77857,0.083771,-1.7688e-05,0.52,0.6,0
0.27157,0.023917,0.49217,-0.78407,-0.7918,-0.71884,0.024962,0,0,-0.16958,-0.18968,0,0.12981,0,0,0.56653,-0.029611,0,0.5673,-0.76267,-0.81319,-0.71884,40.6,-0.7649,0.081776,-3.4399e-06,0.54,0.6,0
0.26776,0.023955,0.46954,-0.78203,-0.77107,-0.7007,0.020942,0,0,-0.21144,-0.18296,0,0.1089,0,0,0.56513,-0.025626,0,0.56571,-0.7549,-0.7982,-0.7007,52.328,-0.75127,0.084608,5.9823e-06,0.56,0.6,0
0.26311,0.02378,0.44696,-0.78037,-0.75012,-0.68263,0.017669,0,0,-0.25413,-0.17548,0,0.091876,0,0,0.56443,-0.022158,0,0.56487,-0.74198,-0.7885,-0.68263,65.282,-0.7377,0.091915,8.3051e-06,0.58,0.6,0
0.2576,0.023446,0.42439,-0.77888,-0.72918,-0.66461,0.015019,0,0,-0.2971,-0.16788,0,0.078098,0,0,0.56416,-0.019181,0,0.56449,-0.725,-0.78307,-0.66461,74.426,-0.72423,0.10259,1.8725e-06,0.6,0.6,0
0.25122,0.022993,0.40183,-0.77745,-0.70842,-0.64668,0.012849,0,0,-0.34003,-0.16054,0,0.066815,0,0,0.56413,-0.016619,0,0.56437,-0.70611,-0.77977,-0.64668,79.791,-0.71085,0.11548,-1.4548e-05,0.62,0.6,0
0.24399,0.022455,0.37926,-0.77601,-0.6879,-0.6288,0.011019,0,0,-0.38275,-0.15365,0,0.057296,0,0,0.56421,-0.014379,0,0.56439,-0.68654,-0.77737,-0.6288,82.979,-0.69757,0.12972,-4.1969e-05,0.64,0.6,0
0.23591,0.021857,0.35669,-0.77454,-0.66764,-0.611,0.0094032,0,0,-0.42521,-0.14726,0,0.048896,0,0,0.56435,-0.012369,0,0.56449,-0.66682,-0.77536,-0.611,85.011,-0.68439,0.14476,-8.1359e-05,0.66,0.6,0
0.22699,0.021216,0.33411,-0.77304,-0.64763,-0.59326,0.007901,0,0,-0.46745,-0.14136,0,0.041085,0,0,0.56451,-0.010502,0,0.56461,-0.64713,-0.77354,-0.59326,86.409,-0.67131,0.16029,-0.00013377,0.68,0.6,0
0.21722,0.020545,0.31153,-0.77156,-0.62784,-0.57558,0.0064314,0,0,-0.50954,-0.13586,0,0.033443,0,0,0.56469,-0.0086996,0,0.56476,-0.62755,-0.77185,-0.57558,87.443,-0.65833,0.17613,-0.00020044,0.7,0.6,0
0.20661,0.019853,0.28894,-0.77013,-0.60823,-0.55798,0.0049324,0,0,-0.5516,-0.13066,0,0.025649,0,0,0.56489,-0.006884,0,0.56493,-0.60808,-0.77028,-0.55798,88.257,-0.64545,0.19221,-0.00028289,0.72,0.6,0
0.19515,0.019148,0.26634,-0.76882,-0.58876,-0.54044,0.0033596,0,0,-0.59379,-0.12562,0,0.01747,0,0,0.56513,-0.0049808,0,0.56515,-0.5887,-0.76889,-0.54044,88.931,-0.63268,0.20855,-0.00038307,0.74,0.6,0
0.18285,0.018434,0.24373,-0.76773,-0.56938,-0.52299,0.0016867,0,0,-0.6363,-0.12059,0,0.0087707,0,0,0.56546,-0.0029131,0,0.56546,-0.56936,-0.76774,-0.52299,89.513,-0.62003,0.22517,-0.00050357,0.76,0.6,0
0.1697,0.01772,0.2211,-0.76695,-0.55002,-0.50564,-8.8404e-05,0,0,-0.67941,-0.11538,0,-0.0004597,0,0,0.56593,-0.00060133,0,0.56593,-0.55002,-0.76695,-0.50564,-89.977,-0.60754,0.24219,-0.00064784,0.78,0.6,0
0.15568,0.017012,0.19845,-0.76664,-0.53061,-0.4884,-0.0019313,0,0,-0.72342,-0.10974,0,-0.010043,0,0,0.56667,0.0020344,0,0.56667,-0.53059,-0.76666,-0.4884,-89.531,-0.59522,0.25974,-0.00082053,0.8,0.6,0
0.14076,0.016327,0.17577,-0.76696,-0.51109,-0.4713,-0.0037513,0,0,-0.76871,-0.10347,0,-0.019507,0,0,0.56783,0.0050618,0,0.56785,-0.51104,-0.76701,-0.4713,-89.16,-0.58312,0.27798,-0.0010276,0.82,0.6,0
0.12493,0.015684,0.15302,-0.76806,-0.49142,-0.45436,-0.0053782,0,0,-0.81562,-0.096366,0,-0.027967,0,0,0.56966,0.0085064,0,0.56973,-0.49131,-0.76816,-0.45436,-88.887,-0.57128,0.29706,-0.0012763,0.84,0.6,0
0.10814,0.015117,0.13019,-0.77001,-0.47163,-0.43759,-0.0065448,0,0,-0.86431,-0.088495,0,-0.034033,0,0,0.57252,0.012283,0,0.57265,-0.47148,-0.77016,-0.43759,-88.744,-0.55974,0.31698,-0.0015729,0.86,0.6,0
0.090356,0.014671,0.10722,-0.77267,-0.45189,-0.42098,-0.0069451,0,0,-0.9144,-0.080367,0,-0.036114,0,0,0.57677,0.016059,0,0.57699,-0.45174,-0.77282,-0.42098,-88.76,-0.54851,0.33751,-0.0019195,0.88,0.6,0
0.071562,0.014386,0.084052,-0.77581,-0.43284,-0.40462,-0.0063683,0,0,-0.96509,-0.073371,0,-0.033115,0,0,0.58258,0.019051,0,0.5829,-0.43272,-0.77593,-0.40462,-88.937,-0.53776,0.35808,-0.0023093,0.9,0.6,0
0.051753,0.014281,0.060617,-0.77899,-0.41486,-0.38847,-0.004991,0,0,-1.0154,-0.06864,0,-0.025953,0,0,0.58968,0.0201,0,0.59003,-0.4148,-0.77906,-0.38847,-89.215,-0.52744,0.37812,-0.0027311,0.92,0.6,0
0.030948,0.014327,0.036878,-0.78088,-0.42866,-0.39052,-0.0026252,0,0,-0.76753,-0.066104,0,-0.0113,0,0,0.59894,0.027113,0,0.59965,-0.42863,-0.7809,-0.39052,-89.58,-0.53335,0.37299,-0.0025769,0.94,0.6,0
0.021052,0.014638,0.02479,-0.78477,-0.4534,-0.39624,-0.00033755,0,0,-0.50509,-0.074307,0,-0.00087764,0,0,0.6104,0.02899,0,0.61111,-0.4534,-0.78477,-0.39624,-89.942,-0.5448,0.36334,-0.0022593,0.96,0.6,0
0.010744,0.014918,0.012462,-0.78561,-0.44209,-0.38077,0.00024352,0,0,-0.52629,-0.079717,0,0.00063315,0,0,0.61974,0.016064,0,0.61993,-0.44209,-0.78561,-0.38077,89.959,-0.53616,0.37793,-0.0025281,0.98,0.6,0
0,0.015021,0,-0.7701,-0.41944,-0.35686,0.0019921,0,0,-0.53721,-0.081347,0,0.0051796,0,0,0.6231,-2.6021e-18,0,0.62306,-0.41942,-0.77011,-0.35686,89.674,-0.51546,0.38579,-0.0026895,1,0.6,0
0,0.014994,1,-0.96046,-1.9561,-1.875,0.015801,0,0,1.1888,-0.10544,0,0.041083,0,0,0.66711,2.0487e-15,0,0.66683,-0.96021,-1.9563,-1.875,0.90903,-1.5972,0.95802,0.044063,0,0.62,0
0.023777,0.015815,0.98666,-0.94188,-1.9365,-1.8502,0.047499,0,0,1.1808,-0.11227,0,0.1235,0,0,0.6623,-0.046846,0,0.66362,-0.93961,-1.9388,-1.8502,2.7278,-1.5762,0.95797,0.043851,0.02,0.62,0
0.047232,0.018757,0.97351,-0.88986,-1.9273,-1.8187,0.098327,0,0,1.2074,-0.14127,0,0.25565,0,0,0.62818,-0.10389,0,0.63588,-0.88062,-1.9366,-1.8187,5.3666,-1.5453,1.0022,0.049297,0.04,0.62,0
0.072075,0.022886,0.96153,-0.8593,-1.6487,-1.4735,0.12609,0,0,0.97594,-0.30355,0,0.47243,0,0,0.57307,-0.14259,0,0.59359,-0.83631,-1.6717,-1.4735,10.764,-1.3272,0.75726,0.030834,0.06,0.62,0
0.08627,0.031252,0.93964,-0.81613,-1.2852,-1.1002,0.085222,0,0,0.73866,-0.481,0,0.44315,0,0,0.52969,-0.073095,0,0.53472,-0.80112,-1.3002,-1.1002,9.9841,-1.0672,0.43507,0.0014201,0.08,0.62,0
0.10162,0.036223,0.91916,-0.78518,-1.2685,-1.0757,0.051077,0,0,0.75529,-0.50129,0,0.2656,0,0,0.50609,-0.053358,0,0.50886,-0.77984,-1.2738,-1.0757,5.9674,-1.0431,0.43058,0.0013714,0.1,0.62,0
0.11648,0.038693,0.89915,-0.77986,-1.2534,-1.0595,0.030055,0,0,0.72719,-0.50397,0,0.15628,0,0,0.49758,-0.040463,0,0.4992,-0.77796,-1.2553,-1.0595,3.6172,-1.0309,0.4156,0.0011262,0.12,0.62,0
0.13071,0.039834,0.87935,-0.77642,-1.2344,-1.0429,0.019038,0,0,0.69293,-0.49789,0,0.098996,0,0,0.49389,-0.031889,0,0.49491,-0.77563,-1.2352,-1.0429,2.3761,-1.0179,0.39978,0.00091278,0.14,0.62,0
0.1442,0.040129,0.85964,-0.77444,-1.2143,-1.0265,0.013417,0,0,0.65524,-0.48851,0,0.06977,0,0,0.49208,-0.02615,0,0.49278,-0.77403,-1.2147,-1.0265,1.7454,-1.0051,0.38302,0.000718,0.16,0.62,0
0.15692,0.039916,0.83998,-0.77271,-1.1938,-1.01,0.011307,0,0,0.61683,-0.47809,0,0.058794,0,0,0.4911,-0.022208,0,0.4916,-0.77241,-1.1941,-1.01,1.5368,-0.99217,0.3662,0.0005474,0.18,0.62,0
0.16887,0.039397,0.82035,-0.77072,-1.1734,-0.99341,0.011109,0,0,0.57898,-0.46793,0,0.057769,0,0,0.49045,-0.019241,0,0.49082,-0.77042,-1.1737,-0.99341,1.5792,-0.97917,0.3499,0.00040084,0.2,0.62,0
0.18008,0.038674,0.80075,-0.76823,-1.1532,-0.9768,0.01149,0,0,0.54229,-0.45864,0,0.05975,0,0,0.48992,-0.016507,0,0.4902,-0.76789,-1.1535,-0.9768,1.7081,-0.96608,0.33438,0.00027629,0.22,0.62,0
0.19056,0.037763,0.78116,-0.76524,-1.1333,-0.96015,0.011153,0,0,0.50675,-0.45024,0,0.057993,0,0,0.48951,-0.013243,0,0.48969,-0.7649,-1.1337,-0.96015,1.7339,-0.9529,0.31953,0.0001707,0.24,0.62,0
0.20035,0.036592,0.76159,-0.76206,-1.1136,-0.94348,0.0086295,0,0,0.4717,-0.44221,0,0.044874,0,0,0.48944,-0.0085596,0,0.48951,-0.76184,-1.1138,-0.94348,1.4055,-0.9397,0.30483,8.1139e-05,0.26,0.62,0
0.20943,0.03498,0.742,-0.75965,-1.0936,-0.92697,0.0022212,0,0,0.43502,-0.43317,0,0.01155,0,0,0.49042,-0.001275,0,0.49041,-0.75964,-1.0936,-0.92697,0.3811,-0.92673,0.28921,4.5826e-06,0.28,0.62,0
0.21775,0.032634,0.72235,-0.75914,-1.0716,-0.91039,-0.011878,0,0,0.39326,-0.4191,0,-0.061766,0,0,0.49486,0.010384,0,0.49493,-0.75869,-1.072,-0.91039,-2.174,-0.91371,0.27141,-5.639e-05,0.3,0.62,0
0.22516,0.028764,0.70242,-0.78118,-1.052,-0.90117,-0.035163,0,0,0.31197,-0.39223,0,-0.18285,0,0,0.51265,0.029535,0,0.51344,-0.77669,-1.0565,-0.90117,-7.2778,-0.91146,0.24283,-0.00013947,0.32,0.62,0
0.23023,0.023094,0.68134,-0.80653,-1.2817,-1.1375,-0.063941,0,0,0.49354,-0.24994,0,-0.23901,0,0,0.5481,0.081889,0,0.55621,-0.79563,-1.2926,-1.1375,-10.201,-1.0752,0.44308,0.0062155,0.34,0.62,0
0.2449,0.019506,0.66995,-0.82611,-1.4663,-1.3577,-0.038346,0,0,0.69103,-0.1412,0,-0.0997,0,0,0.59279,0.034525,0,0.59306,-0.82382,-1.4686,-1.3577,-3.4157,-1.2167,0.59708,0.0096735,0.36,0.62,0
0.25787,0.016694,0.65763,-0.85849,-1.447,-1.3493,-0.0027636,0,0,0.63803,-0.12706,0,-0.0071855,0,0,0.61625,-0.010955,0,0.61615,-0.85847,-1.447,-1.3493,-0.26904,-1.2183,0.54628,0.0074771,0.38,0.62,0
0.27042,0.015098,0.6453,-0.85082,-1.4252,-1.3281,0.023591,0,0,0.62048,-0.12624,0,0.061336,0,0,0.61163,-0.038919,0,0.61282,-0.84985,-1.4262,-1.3281,2.3479,-1.2014,0.53409,0.006944,0.4,0.62,0
0.28269,0.014137,0.63316,-0.83063,-1.1391,-1.0658,0.037274,0,0,0.30484,-0.1271,0,0.14916,0,0,0.60231,-0.040525,0,0.60382,-0.81813,-1.1516,-1.0658,16.572,-1.0118,0.30773,0.0033742,0.42,0.62,0
0.28262,0.01557,0.60926,-0.81476,-0.8673,-0.80925,0.041238,0,0,-0.01433,-0.15094,0,0.21444,0,0,0.59406,-0.033891,0,0.59504,-0.79214,-0.88993,-0.80925,28.75,-0.83044,0.090457,-3.3475e-05,0.44,0.62,0
0.28212,0.017007,0.58564,-0.80644,-0.85621,-0.79161,0.039803,0,0,-0.038539,-0.16796,0,0.20698,0,0,0.58727,-0.036547,0,0.58841,-0.78438,-0.87827,-0.79161,28.991,-0.81809,0.090489,-3.7237e-05,0.46,0.62,0
0.28108,0.018246,0.56228,-0.79978,-0.84202,-0.77368,0.036167,0,0,-0.067854,-0.17769,0,0.18807,0,0,0.58122,-0.03623,0,0.58235,-0.77902,-0.86278,-0.77368,29.857,-0.80516,0.086559,-3.2883e-05,0.48,0.62,0
0.2794,0.019203,0.53914,-0.79468,-0.82538,-0.75559,0.031732,0,0,-0.10165,-0.18146,0,0.16501,0,0,0.57636,-0.034102,0,0.57737,-0.77478,-0.84528,-0.75559,32.094,-0.79189,0.081802,-2.2981e-05,0.5,0.62,0
0.27701,0.019863,0.51617,-0.79085,-0.80707,-0.73746,0.027283,0,0,-0.13882,-0.18098,0,0.14187,0,0,0.57274,-0.031084,0,0.57358,-0.7705,-0.82742,-0.73746,36.724,-0.77846,0.07882,-1.1083e-05,0.52,0.62,0
0.27385,0.020251,0.49332,-0.78792,-0.78768,-0.71934,0.023205,0,0,-0.1783,-0.17769,0,0.12067,0,0,0.5702,-0.027791,0,0.57088,-0.76459,-0.811,-0.71934,45.145,-0.76498,0.079386,-5.6208e-07,0.54,0.62,0
0.26988,0.020403,0.47055,-0.78559,-0.76767,-0.70125,0.019645,0,0,-0.21927,-0.17267,0,0.10215,0,0,0.56852,-0.024576,0,0.56905,-0.75504,-0.79822,-0.70125,57.26,-0.7515,0.084142,5.7498e-06,0.56,0.62,0
0.26508,0.020361,0.44784,-0.78365,-0.74733,-0.68321,0.016621,0,0,-0.26113,-0.16671,0,0.08643,0,0,0.56746,-0.021604,0,0.56787,-0.74087,-0.79011,-0.68321,68.764,-0.73806,0.092667,5.5622e-06,0.58,0.62,0
0.25943,0.020165,0.42516,-0.78194,-0.72691,-0.66523,0.014084,0,0,-0.30344,-0.16035,0,0.073237,0,0,0.56683,-0.018932,0,0.56714,-0.72351,-0.78534,-0.66523,76.448,-0.72469,0.10403,-2.9548e-06,0.6,0.62,0
0.25294,0.019849,0.40249,-0.78037,-0.70652,-0.64731,0.011948,0,0,-0.34594,-0.15394,0,0.062131,0,0,0.56647,-0.016549,0,0.56671,-0.70463,-0.78225,-0.64731,81.034,-0.7114,0.1173,-2.13e-05,0.62,0.62,0
0.2456,0.019442,0.37984,-0.77887,-0.68626,-0.62946,0.010118,0,0,-0.38847,-0.14768,0,0.052614,0,0,0.56631,-0.014412,0,0.5665,-0.68516,-0.77996,-0.62946,83.837,-0.69819,0.1318,-5.0782e-05,0.64,0.62,0
0.2374,0.018968,0.35719,-0.77742,-0.66615,-0.61167,0.0085012,0,0,-0.43097,-0.14166,0,0.044206,0,0,0.56628,-0.012464,0,0.56642,-0.66551,-0.77807,-0.61167,85.656,-0.68508,0.14707,-9.2654e-05,0.66,0.62,0
0.22836,0.018444,0.33454,-0.77603,-0.64621,-0.59394,0.0070175,0,0,-0.47343,-0.13591,0,0.036491,0,0,0.56635,-0.010642,0,0.56644,-0.64584,-0.77641,-0.59394,86.915,-0.67206,0.16284,-0.00014823,0.68,0.62,0
0.21846,0.017884,0.31188,-0.77472,-0.62644,-0.57629,0.005602,0,0,-0.51592,-0.13039,0,0.02913,0,0,0.56649,-0.0088821,0,0.56656,-0.62623,-0.77493,-0.57629,87.839,-0.65915,0.17897,-0.00021898,0.7,0.62,0
0.20772,0.017299,0.28922,-0.77351,-0.60679,-0.5587,0.0042067,0,0,-0.55851,-0.12505,0,0.021875,0,0,0.56673,-0.0071237,0,0.56678,-0.60669,-0.77362,-0.5587,88.555,-0.64634,0.19539,-0.00030663,0.72,0.62,0
0.19612,0.016698,0.26654,-0.77247,-0.58726,-0.54119,0.0028023,0,0,-0.60134,-0.11978,0,0.014572,0,0,0.56708,-0.005306,0,0.5671,-0.58722,-0.77252,-0.54119,89.133,-0.63364,0.21209,-0.00041327,0.74,0.62,0
0.18367,0.016089,0.24385,-0.77167,-0.5678,-0.52377,0.0013807,0,0,-0.64455,-0.11449,0,0.0071795,0,0,0.56758,-0.0033714,0,0.56759,-0.56779,-0.77168,-0.52377,89.612,-0.62108,0.22909,-0.00054148,0.76,0.62,0
0.17034,0.015482,0.22113,-0.77117,-0.54837,-0.50643,-3.918e-05,0,0,-0.68832,-0.10905,0,-0.00020374,0,0,0.56829,-0.001267,0,0.56829,-0.54837,-0.77117,-0.50643,-89.99,-0.60866,0.24646,-0.00069441,0.78,0.62,0
0.15613,0.01489,0.19839,-0.77107,-0.52896,-0.4892,-0.0014033,0,0,-0.73285,-0.10337,0,-0.0072973,0,0,0.5693,0.0010473,0,0.5693,-0.52895,-0.77107,-0.4892,-89.668,-0.59641,0.26425,-0.00087585,0.8,0.62,0
0.14103,0.014329,0.17559,-0.77143,-0.50954,-0.47208,-0.0026146,0,0,-0.77829,-0.097375,0,-0.013596,0,0,0.57074,0.0035834,0,0.57076,-0.50951,-0.77146,-0.47208,-89.428,-0.58435,0.28252,-0.00109,0.82,0.62,0
0.125,0.013822,0.15273,-0.77229,-0.49014,-0.45509,-0.0035303,0,0,-0.82471,-0.091123,0,-0.018358,0,0,0.57278,0.006296,0,0.57281,-0.4901,-0.77233,-0.45509,-89.283,-0.57251,0.30127,-0.0013407,0.84,0.62,0
0.10804,0.013396,0.12977,-0.7736,-0.47088,-0.43823,-0.0039843,0,0,-0.87196,-0.084893,0,-0.020719,0,0,0.57558,0.0090336,0,0.57566,-0.47082,-0.77365,-0.43823,-89.246,-0.5609,0.32037,-0.00163,0.86,0.62,0
0.090124,0.013082,0.10668,-0.7752,-0.452,-0.4215,-0.0038452,0,0,-0.91962,-0.079294,0,-0.019995,0,0,0.57928,0.011475,0,0.5794,-0.45195,-0.77524,-0.4215,-89.319,-0.54956,0.33954,-0.0019561,0.88,0.62,0
0.071254,0.012902,0.083426,-0.77687,-0.43379,-0.40491,-0.0031206,0,0,-0.96708,-0.075092,0,-0.016227,0,0,0.58383,0.013106,0,0.58398,-0.43376,-0.77689,-0.40491,-89.479,-0.53852,0.35843,-0.0023134,0.9,0.62,0
0.051441,0.012859,0.059974,-0.77835,-0.41642,-0.38842,-0.0019533,0,0,-1.0138,-0.072809,0,-0.010157,0,0,0.58892,0.013308,0,0.58907,-0.41641,-0.77836,-0.38842,-89.691,-0.52773,0.37673,-0.0026949,0.92,0.62,0
0.030701,0.012931,0.036313,-0.77901,-0.43227,-0.39062,-0.00031525,0,0,-0.76414,-0.072202,0,-0.0020169,0,0,0.5951,0.017381,0,0.59539,-0.43227,-0.77901,-0.39062,0.045292,-0.53397,0.36958,-0.002488,0.94,0.62,0
0.020875,0.013113,0.02434,-0.78044,-0.45429,-0.39476,0.0012068,0,0,-0.50138,-0.07739,0,0.0031377,0,0,0.60251,0.018391,0,0.60279,-0.45428,-0.78044,-0.39476,89.788,-0.54316,0.35964,-0.00217,0.96,0.62,0
0.010646,0.013289,0.012213,-0.78023,-0.4417,-0.37879,0.0011349,0,0,-0.52187,-0.081781,0,0.0029508,0,0,0.60849,0.01017,0,0.60856,-0.4417,-0.78023,-0.37879,89.808,-0.53357,0.37398,-0.0024321,0.98,0.62,0
0,0.013357,0,-0.76462,-0.41928,-0.35517,0.0013177,0,0,-0.53229,-0.083341,0,0.0034261,0,0,0.61063,-6.5052e-18,0,0.61061,-0.41927,-0.76463,-0.35517,89.781,-0.51302,0.38147,-0.0025817,1,0.62,0
0,0.012453,1,-0.93571,-1.9917,-1.8782,0.012854,0,0,1.2252,-0.14749,0,0.033421,0,0,0.62402,2.7929e-15,0,0.62383,-0.93556,-1.9918,-1.8782,0.69732,-1.6019,1.0043,0.049787,0,0.64,0
0.024505,0.013121,0.98752,-0.90713,-1.9738,-1.8518,0.037253,0,0,1.2281,-0.15863,0,0.096856,0,0,0.61569,-0.036753,0,0.61662,-0.90583,-1.9751,-1.8518,1.9977,-1.5776,1.0133,0.050775,0.02,0.64,0
0.049123,0.014914,0.97537,-0.88507,-2,-1.8409,0.068973,0,0,1.2426,-0.20685,0,0.17933,0,0,0.59142,-0.074566,0,0.59625,-0.88082,-2.0043,-1.8409,3.5265,-1.5753,1.0513,0.054854,0.04,0.64,0
0.074208,0.017193,0.96386,-0.84644,-1.6245,-1.4642,0.074963,0,0,0.97905,-0.27795,0,0.28737,0,0,0.55977,-0.070335,0,0.56482,-0.83734,-1.6337,-1.4642,7.0647,-1.3117,0.72752,0.030074,0.06,0.64,0
0.088285,0.022772,0.9421,-0.80904,-1.2396,-1.0857,0.061673,0,0,0.71921,-0.40039,0,0.3207,0,0,0.53438,-0.050171,0,0.53684,-0.80038,-1.2483,-1.0857,7.9921,-1.0448,0.39274,0.0014097,0.08,0.64,0
0.10298,0.026634,0.92111,-0.7899,-1.2487,-1.0721,0.04124,0,0,0.73384,-0.45912,0,0.21445,0,0,0.51764,-0.042657,0,0.51942,-0.78622,-1.2524,-1.0721,5.0953,-1.0369,0.40717,0.0013193,0.1,0.64,0
0.11764,0.028891,0.90069,-0.77868,-1.2405,-1.0561,0.026063,0,0,0.72132,-0.47952,0,0.13553,0,0,0.50659,-0.034849,0,0.50779,-0.77721,-1.242,-1.0561,3.2196,-1.0251,0.4052,0.0011557,0.12,0.64,0
0.13183,0.030001,0.88058,-0.77369,-1.2277,-1.0407,0.016771,0,0,0.69425,-0.48617,0,0.087208,0,0,0.50029,-0.02877,0,0.50111,-0.77307,-1.2283,-1.0407,2.1126,-1.014,0.39628,0.00095504,0.14,0.64,0
0.14541,0.030393,0.86067,-0.77035,-1.2115,-1.0249,0.011939,0,0,0.66177,-0.48512,0,0.062082,0,0,0.49659,-0.024348,0,0.49718,-0.77002,-1.2118,-1.0249,1.5492,-1.0022,0.38408,0.00076409,0.16,0.64,0
0.1583,0.030332,0.84086,-0.76788,-1.1933,-1.0088,0.0099223,0,0,0.62637,-0.4798,0,0.051596,0,0,0.49442,-0.021141,0,0.49487,-0.76765,-1.1936,-1.0088,1.3353,-0.99,0.36993,0.00058973,0.18,0.64,0
0.17046,0.029991,0.82111,-0.76575,-1.174,-0.99248,0.0095037,0,0,0.58948,-0.47192,0,0.049419,0,0,0.49326,-0.018625,0,0.49361,-0.76553,-1.1742,-0.99248,1.3329,-0.97741,0.35464,0.00043576,0.2,0.64,0
0.18188,0.029458,0.8014,-0.76378,-1.1538,-0.97596,0.0095758,0,0,0.55167,-0.46228,0,0.049794,0,0,0.4929,-0.016247,0,0.49317,-0.76355,-1.154,-0.97596,1.4057,-0.9645,0.33858,0.00030258,0.22,0.64,0
0.19253,0.028748,0.78168,-0.76202,-1.1327,-0.95925,0.0090667,0,0,0.51277,-0.45087,0,0.047147,0,0,0.49338,-0.013428,0,0.49356,-0.7618,-1.1329,-0.95925,1.4005,-0.95131,0.32158,0.00018933,0.24,0.64,0
0.20239,0.027804,0.76193,-0.76091,-1.1104,-0.94235,0.0068683,0,0,0.47174,-0.43687,0,0.035715,0,0,0.49505,-0.0095451,0,0.49514,-0.76077,-1.1105,-0.94235,1.1255,-0.93788,0.30295,9.4785e-05,0.26,0.64,0
0.2114,0.026492,0.74208,-0.76122,-1.0859,-0.92519,0.0016089,0,0,0.42633,-0.41798,0,0.0083662,0,0,0.49878,-0.0039611,0,0.49879,-0.76121,-1.086,-0.92519,0.28386,-0.92412,0.28125,1.9559e-05,0.28,0.64,0
0.21944,0.024564,0.72202,-0.7668,-1.0586,-0.90862,-0.0076188,0,0,0.36873,-0.38986,0,-0.039618,0,0,0.50657,0.0037687,0,0.50659,-0.76661,-1.0588,-0.90862,-1.4948,-0.91133,0.25305,-4.0071e-05,0.3,0.64,0
0.22615,0.021802,0.70155,-0.77732,-1.0182,-0.88942,-0.020053,0,0,0.29146,-0.33475,0,-0.10428,0,0,0.51954,0.012424,0,0.51976,-0.77567,-1.0198,-0.88942,-4.727,-0.89497,0.21162,-5.7316e-05,0.32,0.64,0
0.2311,0.01821,0.68046,-0.80098,-1.2729,-1.1325,-0.025937,0,0,0.49291,-0.24339,0,-0.10018,0,0,0.54021,0.018687,0,0.54075,-0.79886,-1.2751,-1.1325,-4.7446,-1.0688,0.42594,0.0061253,0.34,0.64,0
0.24587,0.015849,0.6694,-0.82394,-1.5216,-1.3731,-0.020778,0,0,0.71387,-0.19314,0,-0.054023,0,0,0.5661,0.012366,0,0.56637,-0.82332,-1.5223,-1.3731,-1.7043,-1.2395,0.63757,0.010894,0.36,0.64,0
0.25966,0.013833,0.65782,-0.83395,-1.47,-1.349,-0.001501,0,0,0.66958,-0.15733,0,-0.0039027,0,0,0.58558,-0.013823,0,0.58567,-0.83395,-1.47,-1.349,-0.1352,-1.2177,0.58504,0.0088193,0.38,0.64,0
0.27265,0.012381,0.64597,-0.83968,-1.4409,-1.3301,0.01667,0,0,0.6376,-0.14396,0,0.043341,0,0,0.59277,-0.03338,0,0.59367,-0.83922,-1.4413,-1.3301,1.587,-1.2036,0.55495,0.0076032,0.4,0.64,0
0.28516,0.011494,0.63411,-0.82646,-1.1471,-1.0676,0.029329,0,0,0.31427,-0.13769,0,0.11809,0,0,0.5922,-0.03371,0,0.59325,-0.81837,-1.1552,-1.0676,13.778,-1.0137,0.31061,0.0035884,0.42,0.64,0
0.28522,0.012577,0.61047,-0.81417,-0.86733,-0.80968,0.03383,0,0,-0.011675,-0.14987,0,0.17592,0,0,0.58928,-0.028327,0,0.58996,-0.79773,-0.88377,-0.80968,25.924,-0.83039,0.08073,-2.5037e-05,0.44,0.64,0
0.28469,0.013745,0.58696,-0.80804,-0.8535,-0.79194,0.033685,0,0,-0.041849,-0.16004,0,0.17516,0,0,0.58564,-0.031079,0,0.58646,-0.79013,-0.8714,-0.79194,27.995,-0.81783,0.080382,-2.6629e-05,0.46,0.64,0
0.28355,0.014819,0.56362,-0.80259,-0.83809,-0.77402,0.031438,0,0,-0.074309,-0.16661,0,0.16348,0,0,0.58179,-0.031508,0,0.58264,-0.78424,-0.85645,-0.77402,30.276,-0.8049,0.077824,-2.2805e-05,0.48,0.64,0
0.28172,0.015706,0.54042,-0.79805,-0.82118,-0.75598,0.028182,0,0,-0.10938,-0.16953,0,0.14654,0,0,0.57827,-0.030371,0,0.57907,-0.77915,-0.84008,-0.75598,33.841,-0.79173,0.075238,-1.5083e-05,0.5,0.64,0
0.27917,0.016369,0.51736,-0.79433,-0.80307,-0.7379,0.024631,0,0,-0.14673,-0.16945,0,0.12808,0,0,0.57534,-0.028319,0,0.57604,-0.77368,-0.82372,-0.7379,39.97,-0.77843,0.074662,-6.0432e-06,0.52,0.64,0
0.27585,0.016809,0.49439,-0.7913,-0.78411,-0.71982,0.021195,0,0,-0.18585,-0.16715,0,0.11021,0,0,0.57304,-0.025837,0,0.57362,-0.7662,-0.8092,-0.71982,49.815,-0.76507,0.077426,1.5648e-06,0.54,0.64,0
0.27174,0.017048,0.47151,-0.78878,-0.76458,-0.70176,0.018072,0,0,-0.22624,-0.16332,0,0.093977,0,0,0.57132,-0.023246,0,0.57179,-0.75493,-0.79843,-0.70176,61.901,-0.75171,0.083854,5.2152e-06,0.56,0.64,0
0.2668,0.017112,0.44869,-0.78663,-0.74473,-0.68375,0.015334,0,0,-0.26749,-0.15853,0,0.079738,0,0,0.57008,-0.020731,0,0.57045,-0.73972,-0.79165,-0.68375,71.901,-0.73837,0.09346,2.7117e-06,0.58,0.64,0
0.26104,0.017032,0.4259,-0.78475,-0.72471,-0.66579,0.012976,0,0,-0.30929,-0.15319,0,0.067475,0,0,0.56922,-0.018384,0,0.56951,-0.72203,-0.78743,-0.66579,78.312,-0.72508,0.10545,-7.8376e-06,0.6,0.64,0
0.25443,0.016835,0.40315,-0.78305,-0.70466,-0.64789,0.010953,0,0,-0.35143,-0.14759,0,0.056954,0,0,0.56864,-0.016229,0,0.56888,-0.70315,-0.78456,-0.64789,82.195,-0.71187,0.11908,-2.8093e-05,0.62,0.64,0
0.24698,0.016548,0.38041,-0.7815,-0.68463,-0.63005,0.0092015,0,0,-0.39377,-0.14193,0,0.047848,0,0,0.5683,-0.014256,0,0.56847,-0.68377,-0.78236,-0.63005,84.621,-0.69873,0.13381,-5.9573e-05,0.64,0.64,0
0.23868,0.01619,0.35769,-0.78006,-0.6647,-0.61227,0.0076557,0,0,-0.43625,-0.13631,0,0.03981,0,0,0.56812,-0.012433,0,0.56826,-0.66419,-0.78056,-0.61227,86.22,-0.68567,0.14927,-0.00010375,0.66,0.64,0
0.22953,0.015779,0.33496,-0.77873,-0.64486,-0.59456,0.006254,0,0,-0.47884,-0.13078,0,0.032521,0,0,0.5681,-0.010718,0,0.5682,-0.64457,-0.77902,-0.59456,87.331,-0.67271,0.16523,-0.00016215,0.68,0.64,0
0.21953,0.015329,0.31224,-0.77753,-0.62513,-0.57692,0.0049462,0,0,-0.52158,-0.12535,0,0.02572,0,0,0.56821,-0.0090641,0,0.56828,-0.62497,-0.77768,-0.57692,88.143,-0.65986,0.18158,-0.0002364,0.7,0.64,0
0.20867,0.014852,0.28951,-0.77647,-0.6055,-0.55934,0.0036965,0,0,-0.56453,-0.12,0,0.019222,0,0,0.56847,-0.0074231,0,0.56851,-0.60542,-0.77655,-0.55934,88.762,-0.64711,0.19823,-0.00032835,0.72,0.64,0
0.19695,0.014357,0.26676,-0.7756,-0.58596,-0.54185,0.0024864,0,0,-0.60776,-0.11469,0,0.012929,0,0,0.56888,-0.0057497,0,0.56891,-0.58593,-0.77564,-0.54185,89.249,-0.63447,0.21516,-0.00044008,0.74,0.64,0
0.18436,0.013855,0.244,-0.77496,-0.5665,-0.52444,0.0013177,0,0,-0.65137,-0.10936,0,0.0068519,0,0,0.5695,-0.0040027,0,0.56951,-0.56649,-0.77497,-0.52444,89.638,-0.62197,0.23238,-0.00057399,0.76,0.64,0
0.17089,0.013357,0.2212,-0.77459,-0.54711,-0.50711,0.00021584,0,0,-0.69545,-0.10399,0,0.0011224,0,0,0.57035,-0.0021504,0,0.57036,-0.54711,-0.77459,-0.50711,89.946,-0.6096,0.24989,-0.00073275,0.78,0.64,0
0.15654,0.012878,0.19837,-0.77452,-0.52778,-0.48988,-0.00076686,0,0,-0.74008,-0.098565,0,-0.0039877,0,0,0.57152,-0.00017853,0,0.57152,-0.52778,-0.77452,-0.48988,-89.822,-0.59739,0.26771,-0.0009192,0.8,0.64,0
0.14129,0.012431,0.17548,-0.77477,-0.50856,-0.47274,-0.0015522,0,0,-0.78527,-0.09314,0,-0.0080716,0,0,0.57308,0.0018958,0,0.57308,-0.50855,-0.77478,-0.47274,-89.666,-0.58536,0.28582,-0.001136,0.82,0.64,0
0.12513,0.012039,0.15252,-0.7753,-0.4895,-0.4557,-0.0020465,0,0,-0.83096,-0.087878,0,-0.010642,0,0,0.57512,0.004004,0,0.57513,-0.48949,-0.77532,-0.4557,-89.59,-0.5735,0.30413,-0.0013849,0.84,0.64,0
0.10805,0.011722,0.12947,-0.77605,-0.47073,-0.43877,-0.0021664,0,0,-0.87693,-0.083095,0,-0.011265,0,0,0.5777,0.0060003,0,0.57773,-0.47071,-0.77606,-0.43877,-89.594,-0.56185,0.32251,-0.001666,0.86,0.64,0
0.09005,0.011499,0.10631,-0.77687,-0.45241,-0.42194,-0.0018827,0,0,-0.92283,-0.079225,0,-0.00979,0,0,0.58084,0.0076451,0,0.58089,-0.4524,-0.77688,-0.42194,-89.668,-0.5504,0.34074,-0.0019772,0.88,0.64,0
0.071136,0.011382,0.083004,-0.77761,-0.43469,-0.40519,-0.0012521,0,0,-0.96829,-0.076691,0,-0.0065111,0,0,0.58442,0.0086191,0,0.58448,-0.43468,-0.77762,-0.40519,-89.791,-0.53917,0.35859,-0.0023143,0.9,0.64,0
0.051318,0.011368,0.059552,-0.77812,-0.41758,-0.38849,-0.00041406,0,0,-1.0131,-0.075649,0,-0.0021531,0,0,0.58816,0.0085913,0,0.58823,-0.41758,-0.77812,-0.38849,-89.934,-0.52807,0.37593,-0.0026736,0.92,0.64,0
0.030614,0.011439,0.035951,-0.77826,-0.43458,-0.39082,0.00062026,0,0,-0.76248,-0.075864,0,0.0018831,0,0,0.59244,0.011,0,0.59256,-0.43458,-0.77826,-0.39082,89.891,-0.53455,0.3678,-0.0024401,0.94,0.64,0
0.020819,0.011543,0.024054,-0.77866,-0.45488,-0.39411,0.001435,0,0,-0.4999,-0.078995,0,0.0037309,0,0,0.5974,0.01155,0,0.59751,-0.45487,-0.77866,-0.39411,89.746,-0.54255,0.35806,-0.0021306,0.96,0.64,0
0.010618,0.011647,0.012055,-0.77805,-0.44071,-0.37768,0.0011311,0,0,-0.52048,-0.081935,0,0.0029409,0,0,0.60135,0.0063626,0,0.60138,-0.44071,-0.77805,-0.37768,89.808,-0.53215,0.37288,-0.0024082,0.98,0.64,0
0,0.011688,0,-0.76258,-0.4181,-0.3542,0.00079247,0,0,-0.53089,-0.083062,0,0.0020604,0,0,0.60276,-5.2042e-18,0,0.60276,-0.41809,-0.76258,-0.3542,89.868,-0.51162,0.38048,-0.002562,1,0.64,0
0,0.0090942,1,-0.9107,-2.0211,-1.8795,0.0072297,0,0,1.2595,-0.18402,0,0.018797,0,0,0.5936,-1.262e-15,0,0.59352,-0.91065,-2.0211,-1.8795,0.37303,-1.6038,1.0469,0.055312,0,0.66,0
0.02519,0.0094701,0.98813,-0.88959,-2.0085,-1.8576,0.023925,0,0,1.2583,-0.1962,0,0.062206,0,0,0.58773,-0.02426,0,0.58819,-0.88908,-2.009,-1.8576,1.2244,-1.5852,1.0524,0.055706,0.02,0.66,0
0.050334,0.010483,0.97649,-0.87304,-2.0207,-1.8446,0.040832,0,0,1.2631,-0.22894,0,0.10616,0,0,0.57115,-0.044463,0,0.57295,-0.87159,-2.0222,-1.8446,2.035,-1.5795,1.0729,0.057616,0.04,0.66,0
0.075712,0.011768,0.96528,-0.83813,-1.6162,-1.4603,0.046292,0,0,0.98308,-0.2703,0,0.17869,0,0,0.55058,-0.042308,0,0.55246,-0.8345,-1.6198,-1.4603,4.5413,-1.3049,0.7198,0.03054,0.06,0.66,0
0.089657,0.015237,0.94365,-0.80748,-1.2206,-1.0802,0.04017,0,0,0.7092,-0.36491,0,0.20888,0,0,0.53392,-0.031593,0,0.5349,-0.80361,-1.2245,-1.0802,5.5025,-1.0361,0.37044,0.0013403,0.08,0.66,0
0.10408,0.017859,0.92257,-0.79035,-1.2321,-1.068,0.029473,0,0,0.72196,-0.42664,0,0.15326,0,0,0.52141,-0.030512,0,0.52233,-0.78839,-1.2341,-1.068,3.8001,-1.0302,0.39013,0.0012942,0.1,0.66,0
0.11854,0.019513,0.90194,-0.77879,-1.2311,-1.0539,0.01956,0,0,0.71539,-0.46064,0,0.10171,0,0,0.51146,-0.027216,0,0.5122,-0.77795,-1.232,-1.0539,2.4715,-1.0213,0.39622,0.0011609,0.12,0.66,0
0.1327,0.020387,0.88165,-0.77153,-1.2223,-1.039,0.012982,0,0,0.69538,-0.4767,0,0.067505,0,0,0.50439,-0.023928,0,0.50497,-0.77115,-1.2227,-1.039,1.6481,-1.0109,0.39331,0.00098708,0.14,0.66,0
0.14635,0.020724,0.86159,-0.76702,-1.2091,-1.0236,0.0094575,0,0,0.66722,-0.48231,0,0.049179,0,0,0.49971,-0.021317,0,0.50017,-0.76682,-1.2093,-1.0236,1.2249,-0.99994,0.38489,0.00080242,0.16,0.66,0
0.15938,0.020724,0.84167,-0.76392,-1.1929,-1.0079,0.0081231,0,0,0.63431,-0.48107,0,0.04224,0,0,0.49682,-0.019379,0,0.4972,-0.76377,-1.1931,-1.0079,1.0844,-0.98824,0.37295,0.00062632,0.18,0.66,0
0.17172,0.02052,0.82184,-0.7617,-1.1745,-0.99178,0.0080532,0,0,0.5982,-0.47504,0,0.041877,0,0,0.49534,-0.017861,0,0.49566,-0.76154,-1.1746,-0.99178,1.1172,-0.97599,0.35854,0.0004664,0.2,0.66,0
0.18331,0.020183,0.80205,-0.76015,-1.1542,-0.97534,0.0084082,0,0,0.55951,-0.46516,0,0.043723,0,0,0.49512,-0.016414,0,0.49539,-0.75997,-1.1544,-0.97534,1.2217,-0.96325,0.34209,0.00032594,0.22,0.66,0
0.1941,0.019728,0.78223,-0.75936,-1.1322,-0.95859,0.0083837,0,0,0.51799,-0.45143,0,0.043595,0,0,0.49622,-0.014659,0,0.49643,-0.75918,-1.1324,-0.95859,1.2874,-0.95006,0.32348,0.00020595,0.24,0.66,0
0.20403,0.019118,0.76235,-0.75974,-1.108,-0.94149,0.0071722,0,0,0.47255,-0.43287,0,0.037295,0,0,0.4989,-0.012248,0,0.49906,-0.75959,-1.1081,-0.94149,1.1794,-0.9364,0.30194,0.00010712,0.26,0.66,0
0.213,0.01826,0.74232,-0.76233,-1.0807,-0.92408,0.0041111,0,0,0.42055,-0.4073,0,0.021378,0,0,0.50374,-0.008988,0,0.50382,-0.76228,-1.0808,-0.92408,0.73962,-0.92238,0.27585,2.988e-05,0.28,0.66,0
0.22085,0.01704,0.72205,-0.76796,-1.0481,-0.90584,-0.00095755,0,0,0.35848,-0.36984,0,-0.0049793,0,0,0.51125,-0.0052256,0,0.51129,-0.76796,-1.0481,-0.90584,-0.19585,-0.9073,0.24261,-1.9814e-05,0.3,0.66,0
0.22734,0.015374,0.70142,-0.77737,-1.0076,-0.88621,-0.006185,0,0,0.28299,-0.31571,0,-0.032162,0,0,0.52134,-0.0027428,0,0.52138,-0.77721,-1.0078,-0.88621,-1.5375,-0.89041,0.19981,-3.8652e-05,0.32,0.66,0
0.23217,0.013359,0.68034,-0.79685,-1.2713,-1.1307,-0.0083652,0,0,0.49436,-0.24367,0,-0.032644,0,0,0.53558,-0.0050707,0,0.5357,-0.79662,-1.2715,-1.1307,-1.597,-1.0663,0.42518,0.0063182,0.34,0.66,0
0.24712,0.011781,0.66946,-0.81748,-1.5354,-1.3753,-0.0038622,0,0,0.72518,-0.20806,0,-0.010042,0,0,0.55406,-0.013432,0,0.5543,-0.81746,-1.5354,-1.3753,-0.30824,-1.2427,0.65278,0.011442,0.36,0.66,0
0.26118,0.010401,0.65818,-0.82676,-1.4902,-1.3533,0.005221,0,0,0.68445,-0.17798,0,0.013574,0,0,0.5705,-0.024726,0,0.57105,-0.82672,-1.4902,-1.3533,0.45088,-1.2234,0.60672,0.00953,0.38,0.66,0
0.2745,0.0093391,0.64664,-0.83151,-1.4536,-1.3322,0.016332,0,0,0.65087,-0.15789,0,0.042463,0,0,0.5805,-0.036063,0,0.58161,-0.83108,-1.4541,-1.3322,1.5028,-1.2058,0.57186,0.0081537,0.4,0.66,0
0.28722,0.0086297,0.63496,-0.82312,-1.1545,-1.0695,0.02523,0,0,0.32265,-0.14736,0,0.10126,0,0,0.58489,-0.032681,0,0.5859,-0.81738,-1.1603,-1.0695,11.67,-1.0157,0.31573,0.0037849,0.42,0.66,0
0.2874,0.0095754,0.61153,-0.81347,-0.86809,-0.81023,0.028858,0,0,-0.0084168,-0.15044,0,0.15006,0,0,0.58546,-0.025893,0,0.58603,-0.80105,-0.88051,-0.81023,23.288,-0.8306,0.075296,-2.0829e-05,0.44,0.66,0
0.28688,0.010605,0.58812,-0.8092,-0.8519,-0.79239,0.028991,0,0,-0.043708,-0.15471,0,0.15075,0,0,0.58408,-0.027928,0,0.58475,-0.79455,-0.86655,-0.79239,26.817,-0.81783,0.073106,-2.0008e-05,0.46,0.66,0
0.28565,0.011582,0.5648,-0.80487,-0.83524,-0.77443,0.027395,0,0,-0.079141,-0.1581,0,0.14246,0,0,0.58193,-0.028307,0,0.58262,-0.78873,-0.85138,-0.77443,30.501,-0.80485,0.070885,-1.5812e-05,0.48,0.66,0
0.28371,0.012422,0.54157,-0.80087,-0.81785,-0.7564,0.024854,0,0,-0.11562,-0.15977,0,0.12924,0,0,0.57955,-0.027496,0,0.5802,-0.7831,-0.83562,-0.7564,35.569,-0.79171,0.069815,-9.2576e-06,0.5,0.66,0
0.28103,0.013085,0.51843,-0.79733,-0.79973,-0.73834,0.021941,0,0,-0.15339,-0.15963,0,0.11409,0,0,0.57727,-0.025927,0,0.57785,-0.77656,-0.82051,-0.73834,43.434,-0.77847,0.071218,-2.2322e-06,0.52,0.66,0
0.27758,0.013565,0.49539,-0.79427,-0.78101,-0.72028,0.019022,0,0,-0.19237,-0.15791,0,0.098912,0,0,0.57528,-0.023947,0,0.57578,-0.7675,-0.80778,-0.72028,54.606,-0.76519,0.075861,3.0646e-06,0.54,0.66,0
0.27333,0.01387,0.47241,-0.79161,-0.76183,-0.70224,0.016297,0,0,-0.23237,-0.15494,0,0.084744,0,0,0.57363,-0.021808,0,0.57404,-0.75465,-0.7988,-0.70224,66.21,-0.7519,0.083724,4.4437e-06,0.56,0.66,0
0.26828,0.01402,0.4495,-0.78931,-0.74235,-0.68424,0.013857,0,0,-0.27316,-0.15106,0,0.072055,0,0,0.57232,-0.019673,0,0.57266,-0.73856,-0.79309,-0.68424,74.727,-0.73863,0.094263,-1.4423e-07,0.58,0.66,0
0.26241,0.014037,0.42663,-0.78727,-0.72267,-0.6663,0.01172,0,0,-0.31454,-0.14657,0,0.060944,0,0,0.57133,-0.01763,0,0.5716,-0.72061,-0.78933,-0.6663,80.029,-0.72541,0.1068,-1.2586e-05,0.6,0.66,0
0.2557,0.013945,0.40379,-0.78546,-0.7029,-0.64841,0.0098664,0,0,-0.35635,-0.14169,0,0.051305,0,0,0.5706,-0.01572,0,0.57082,-0.70174,-0.78663,-0.64841,83.279,-0.71226,0.12074,-3.4631e-05,0.62,0.66,0
0.24815,0.013765,0.38098,-0.78384,-0.68311,-0.63057,0.0082546,0,0,-0.39849,-0.13659,0,0.042924,0,0,0.57011,-0.013947,0,0.57028,-0.68244,-0.78451,-0.63057,85.346,-0.69917,0.13566,-6.7944e-05,0.64,0.66,0
0.23976,0.013516,0.35818,-0.78238,-0.66333,-0.61281,0.0068366,0,0,-0.4409,-0.13137,0,0.03555,0,0,0.56982,-0.012294,0,0.56995,-0.66294,-0.78277,-0.61281,86.724,-0.68617,0.15127,-0.00011416,0.66,0.66,0
0.23052,0.013213,0.33539,-0.78108,-0.64361,-0.5951,0.0055664,0,0,-0.48354,-0.12612,0,0.028945,0,0,0.56971,-0.010734,0,0.56982,-0.64339,-0.78131,-0.5951,87.685,-0.67327,0.16737,-0.00017495,0.68,0.66,0
0.22042,0.01287,0.31261,-0.77995,-0.62396,-0.57747,0.0044053,0,0,-0.52643,-0.12086,0,0.022908,0,0,0.56979,-0.0092334,0,0.56986,-0.62383,-0.78007,-0.57747,88.384,-0.66046,0.18385,-0.00025207,0.7,0.66,0
0.20946,0.012499,0.28981,-0.77898,-0.60438,-0.55991,0.0033264,0,0,-0.56958,-0.1156,0,0.017297,0,0,0.57005,-0.0077564,0,0.5701,-0.60431,-0.77904,-0.55991,88.909,-0.64776,0.20065,-0.0003474,0.72,0.66,0
0.19764,0.01211,0.267,-0.77821,-0.58488,-0.54243,0.002317,0,0,-0.61303,-0.11037,0,0.012049,0,0,0.5705,-0.0062696,0,0.57054,-0.58485,-0.77824,-0.54243,89.314,-0.63517,0.21772,-0.00046296,0.74,0.66,0
0.18494,0.011714,0.24417,-0.77765,-0.56546,-0.52502,0.0013815,0,0,-0.65683,-0.10516,0,0.0071837,0,0,0.57118,-0.0047445,0,0.5712,-0.56546,-0.77765,-0.52502,89.627,-0.62271,0.23504,-0.00060089,0.76,0.66,0
0.17136,0.011322,0.22131,-0.77731,-0.54616,-0.50769,0.00054225,0,0,-0.70099,-0.10001,0,0.0028197,0,0,0.57211,-0.0031628,0,0.57212,-0.54615,-0.77731,-0.50769,89.866,-0.61038,0.25259,-0.00076339,0.78,0.66,0
0.1569,0.010947,0.1984,-0.77719,-0.52697,-0.49045,-0.00016056,0,0,-0.74552,-0.094965,0,-0.00083491,0,0,0.57335,-0.0015233,0,0.57335,-0.52697,-0.77719,-0.49045,-89.963,-0.5982,0.27033,-0.00095251,0.8,0.66,0
0.14154,0.010603,0.17544,-0.77727,-0.50797,-0.47329,-0.00067441,0,0,-0.79035,-0.090155,0,-0.0035069,0,0,0.57493,0.00014869,0,0.57493,-0.50797,-0.77728,-0.47329,-89.856,-0.58618,0.28822,-0.0011699,0.82,0.66,0
0.12529,0.010306,0.15241,-0.77752,-0.48921,-0.45622,-0.00094665,0,0,-0.83537,-0.085769,0,-0.0049226,0,0,0.57688,0.001789,0,0.57689,-0.48921,-0.77752,-0.45622,-89.812,-0.57432,0.30614,-0.0014161,0.84,0.66,0
0.10813,0.010072,0.12929,-0.77784,-0.4708,-0.43923,-0.00094523,0,0,-0.88036,-0.082066,0,-0.0049152,0,0,0.57922,0.003285,0,0.57924,-0.4708,-0.77784,-0.43923,-89.824,-0.56262,0.32398,-0.0016907,0.86,0.66,0
0.090072,0.0099131,0.10607,-0.77813,-0.45283,-0.42232,-0.00068104,0,0,-0.9251,-0.079325,0,-0.0035414,0,0,0.5819,0.004475,0,0.58192,-0.45283,-0.77813,-0.42232,-89.88,-0.5511,0.34158,-0.0019919,0.88,0.66,0
0.071124,0.0098348,0.082737,-0.77831,-0.43537,-0.40547,-0.00022011,0,0,-0.96937,-0.077742,0,-0.0011445,0,0,0.58478,0.0051677,0,0.5848,-0.43537,-0.77831,-0.40547,-89.963,-0.53972,0.35882,-0.0023173,0.9,0.66,0
0.051297,0.0098335,0.059287,-0.77827,-0.41837,-0.38864,0.00033325,0,0,-1.0131,-0.077312,0,0.0017329,0,0,0.58763,0.0051852,0,0.58766,-0.41837,-0.77827,-0.38864,89.947,-0.52843,0.37565,-0.0026651,0.92,0.66,0
0.030602,0.009896,0.035726,-0.77819,-0.4359,-0.39102,0.00092625,0,0,-0.76201,-0.07779,0,0.0032595,0,0,0.59073,0.0066363,0,0.59077,-0.4359,-0.77819,-0.39102,89.841,-0.53504,0.3671,-0.0024193,0.94,0.66,0
0.020817,0.0099527,0.023877,-0.77816,-0.45511,-0.39386,0.0012765,0,0,-0.4996,-0.079625,0,0.0033188,0,0,0.5942,0.0069595,0,0.59425,-0.4551,-0.77817,-0.39386,89.774,-0.54238,0.35764,-0.0021191,0.96,0.66,0
0.010618,0.010011,0.011958,-0.77745,-0.43978,-0.37713,0.00090357,0,0,-0.52042,-0.081445,0,0.0023493,0,0,0.59694,0.0038301,0,0.59695,-0.43977,-0.77745,-0.37713,89.847,-0.53145,0.37297,-0.0024132,0.98,0.66,0
0,0.010035,0,-0.7621,-0.4169,-0.3537,0.00045045,0,0,-0.53092,-0.082161,0,0.0011712,0,0,0.5979,1.5179e-17,0,0.5979,-0.4169,-0.7621,-0.3537,89.925,-0.5109,0.38075,-0.0025737,1,0.66,0
0,0.005092,1,-0.89693,-2.0421,-1.8817,0.0034856,0,0,1.2802,-0.20849,0,0.0090626,0,0,0.5755,-2.5036e-15,0,0.57547,-0.89692,-2.0421,-1.8817,0.17439,-1.6069,1.074,0.058871,0,0.68,0
0.025604,0.0052732,0.98849,-0.87764,-2.0267,-1.8598,0.012154,0,0,1.2768,-0.21699,0,0.031599,0,0,0.57123,-0.01354,0,0.57138,-0.87751,-2.0268,-1.8598,0.60592,-1.588,1.0756,0.058745,0.02,0.68,0
0.051072,0.0057569,0.97715,-0.86507,-2.0304,-1.8458,0.020884,0,0,1.2749,-0.24,0,0.054298,0,0,0.55927,-0.024754,0,0.55986,-0.8647,-2.0308,-1.8458,1.0263,-1.5804,1.0855,0.059308,0.04,0.68,0
0.076602,0.0063812,0.96612,-0.83418,-1.6147,-1.4592,0.023939,0,0,0.98693,-0.26942,0,0.092741,0,0,0.54443,-0.023729,0,0.54506,-0.8332,-1.6157,-1.4592,2.3859,-1.3027,0.71797,0.030862,0.06,0.68,0
0.09055,0.0081759,0.94463,-0.80613,-1.2114,-1.0776,0.021611,0,0,0.70573,-0.34789,0,0.11238,0,0,0.53207,-0.01885,0,0.53243,-0.80498,-1.2125,-1.0776,3.0441,-1.0317,0.35958,0.001304,0.08,0.68,0
0.10483,0.0095684,0.92355,-0.79046,-1.2228,-1.0657,0.016428,0,0,0.71574,-0.40824,0,0.085423,0,0,0.52202,-0.019635,0,0.52241,-0.78983,-1.2234,-1.0657,2.1731,-1.0263,0.38009,0.0012738,0.1,0.68,0
0.11918,0.010466,0.90287,-0.77841,-1.2246,-1.0523,0.011328,0,0,0.71218,-0.44785,0,0.058903,0,0,0.51318,-0.019127,0,0.51355,-0.77813,-1.2249,-1.0523,1.4534,-1.0184,0.39021,0.0011657,0.12,0.68,0
0.13332,0.010933,0.8825,-0.77007,-1.2189,-1.0379,0.0078113,0,0,0.69649,-0.47056,0,0.040619,0,0,0.50619,-0.018248,0,0.50652,-0.76993,-1.2191,-1.0379,0.99667,-1.009,0.39138,0.0010087,0.14,0.68,0
0.14704,0.011101,0.86237,-0.7645,-1.2079,-1.0229,0.0061637,0,0,0.67188,-0.48103,0,0.032051,0,0,0.50114,-0.017552,0,0.50145,-0.76441,-1.208,-1.0229,0.79621,-0.99844,0.38592,0.00083205,0.16,0.68,0
0.16019,0.011089,0.84241,-0.76084,-1.1931,-1.0074,0.0059817,0,0,0.64104,-0.48288,0,0.031105,0,0,0.49788,-0.017172,0,0.49817,-0.76075,-1.1932,-1.0074,0.79264,-0.98711,0.37574,0.00065582,0.18,0.68,0
0.17268,0.010989,0.82254,-0.75848,-1.1754,-0.99143,0.006714,0,0,0.60567,-0.4783,0,0.034913,0,0,0.49622,-0.017016,0,0.49652,-0.75837,-1.1755,-0.99143,0.92238,-0.9751,0.36207,0.00049177,0.2,0.68,0
0.18442,0.010851,0.80271,-0.75721,-1.1552,-0.97508,0.007806,0,0,0.56647,-0.46834,0,0.040591,0,0,0.4961,-0.016891,0,0.49639,-0.75705,-1.1554,-0.97508,1.1232,-0.9625,0.34546,0.00034564,0.22,0.68,0
0.19534,0.010691,0.78285,-0.75708,-1.1326,-0.95832,0.0087305,0,0,0.52323,-0.45304,0,0.045399,0,0,0.49755,-0.016582,0,0.49783,-0.75688,-1.1328,-0.95832,1.3312,-0.94932,0.32581,0.00022025,0.24,0.68,0
0.20535,0.010489,0.76291,-0.75849,-1.1071,-0.94113,0.0090119,0,0,0.47485,-0.43149,0,0.046862,0,0,0.50072,-0.01592,0,0.50098,-0.75826,-1.1073,-0.94113,1.4799,-0.93557,0.30241,0.00011736,0.26,0.68,0
0.21433,0.0102,0.7428,-0.76199,-1.0778,-0.92335,0.0083195,0,0,0.41954,-0.4017,0,0.043261,0,0,0.5058,-0.014899,0,0.50603,-0.76177,-1.0781,-0.92335,1.5077,-0.92106,0.27394,3.9667e-05,0.28,0.68,0
0.22213,0.0097703,0.72244,-0.76812,-1.0437,-0.90477,0.0068028,0,0,0.35528,-0.36122,0,0.035375,0,0,0.51282,-0.013875,0,0.51302,-0.76795,-1.0439,-0.90477,1.4132,-0.90553,0.23895,-1.0047e-05,0.3,0.68,0
0.22854,0.009174,0.70177,-0.77673,-1.0036,-0.88499,0.0052562,0,0,0.28145,-0.30839,0,0.027332,0,0,0.52138,-0.013532,0,0.52158,-0.77661,-1.0037,-0.88499,1.3265,-0.88844,0.19675,-3.0874e-05,0.32,0.68,0
0.23339,0.0084632,0.68073,-0.7953,-1.2728,-1.131,0.0054117,0,0,0.49693,-0.24579,0,0.020643,0,0,0.5329,-0.02187,0,0.53345,-0.79521,-1.2729,-1.131,0.98626,-1.0663,0.42761,0.0064283,0.34,0.68,0
0.24842,0.0075264,0.66993,-0.81435,-1.5422,-1.3769,0.008487,0,0,0.73132,-0.2149,0,0.022066,0,0,0.54814,-0.032465,0,0.54916,-0.81425,-1.5423,-1.3769,0.66796,-1.2445,0.66106,0.011764,0.36,0.68,0
0.26264,0.0067137,0.65881,-0.82288,-1.4995,-1.3555,0.013555,0,0,0.69245,-0.18721,0,0.035243,0,0,0.56295,-0.037804,0,0.56425,-0.82261,-1.4998,-1.3555,1.1471,-1.226,0.61783,0.0099214,0.38,0.68,0
0.27612,0.0060653,0.64742,-0.82821,-1.4625,-1.3346,0.019191,0,0,0.65834,-0.16621,0,0.049897,0,0,0.57393,-0.04321,0,0.57556,-0.82763,-1.4631,-1.3346,1.7315,-1.2084,0.58194,0.0084834,0.4,0.68,0
0.28897,0.0055996,0.63585,-0.82139,-1.1598,-1.0712,0.023966,0,0,0.32818,-0.15344,0,0.094961,0,0,0.58058,-0.035279,0,0.58177,-0.81664,-1.1645,-1.0712,10.571,-1.0175,0.31989,0.003921,0.42,0.68,0
0.28925,0.0065594,0.61254,-0.81335,-0.86867,-0.81088,0.025782,0,0,-0.0064381,-0.15027,0,0.13406,0,0,0.58314,-0.025586,0,0.5837,-0.8032,-0.87882,-0.81088,21.494,-0.83097,0.072092,-1.851e-05,0.44,0.68,0
0.28872,0.0075566,0.5892,-0.81041,-0.85065,-0.79292,0.025484,0,0,-0.045474,-0.15011,0,0.13251,0,0,0.58322,-0.026445,0,0.58382,-0.79806,-0.863,-0.79292,25.852,-0.81799,0.06766,-1.5598e-05,0.46,0.68,0
0.28743,0.0084956,0.56588,-0.80692,-0.83295,-0.7749,0.023969,0,0,-0.083247,-0.15092,0,0.12464,0,0,0.58222,-0.02628,0,0.58281,-0.79266,-0.84721,-0.7749,30.749,-0.80492,0.065265,-1.0794e-05,0.48,0.68,0
0.28539,0.0093149,0.54262,-0.80335,-0.8151,-0.75684,0.021753,0,0,-0.12091,-0.15146,0,0.11312,0,0,0.58065,-0.025348,0,0.58121,-0.78669,-0.83176,-0.75684,37.443,-0.79176,0.06532,-4.9124e-06,0.5,0.68,0
0.28259,0.0099835,0.51943,-0.79995,-0.79691,-0.73877,0.019246,0,0,-0.15907,-0.15115,0,0.10008,0,0,0.57889,-0.023909,0,0.57938,-0.77912,-0.81774,-0.73877,47.264,-0.77855,0.068391,6.2601e-07,0.52,0.68,0
0.27903,0.010493,0.49631,-0.79686,-0.77833,-0.72071,0.016726,0,0,-0.19798,-0.14981,0,0.086975,0,0,0.57716,-0.022184,0,0.57758,-0.76848,-0.80672,-0.72071,59.489,-0.7653,0.074634,4.065e-06,0.54,0.68,0
0.27467,0.01085,0.47326,-0.79409,-0.75941,-0.70268,0.014356,0,0,-0.23767,-0.14751,0,0.074651,0,0,0.57559,-0.020344,0,0.57595,-0.75424,-0.79926,-0.70268,70.188,-0.75206,0.083708,3.5242e-06,0.56,0.68,0
0.26952,0.011069,0.45026,-0.79164,-0.74022,-0.68469,0.012216,0,0,-0.27807,-0.14439,0,0.063524,0,0,0.57426,-0.018504,0,0.57455,-0.73747,-0.79439,-0.68469,77.292,-0.73885,0.095029,-2.8842e-06,0.58,0.68,0
0.26355,0.011169,0.42732,-0.78947,-0.72083,-0.66675,0.01033,0,0,-0.31907,-0.14062,0,0.053718,0,0,0.57317,-0.016734,0,0.57341,-0.71931,-0.79099,-0.66675,81.624,-0.72568,0.10802,-1.7005e-05,0.6,0.68,0
0.25676,0.011168,0.40441,-0.78755,-0.70131,-0.64886,0.0086887,0,0,-0.36058,-0.13637,0,0.045181,0,0,0.57233,-0.015068,0,0.57253,-0.70045,-0.78841,-0.64886,84.303,-0.71257,0.12222,-4.0634e-05,0.62,0.68,0
0.24913,0.011084,0.38153,-0.78585,-0.68173,-0.63104,0.0072629,0,0,-0.40252,-0.13179,0,0.037767,0,0,0.57172,-0.013513,0,0.57188,-0.68122,-0.78636,-0.63104,86.029,-0.69954,0.13729,-7.5529e-05,0.64,0.68,0
0.24065,0.010935,0.35867,-0.78436,-0.66212,-0.61328,0.0060175,0,0,-0.44481,-0.12698,0,0.031291,0,0,0.57133,-0.01206,0,0.57146,-0.66182,-0.78465,-0.61328,87.189,-0.68658,0.15299,-0.00012344,0.66,0.68,0
0.23133,0.010735,0.33582,-0.78306,-0.64251,-0.59558,0.004917,0,0,-0.48744,-0.12202,0,0.025569,0,0,0.57116,-0.01069,0,0.57126,-0.64234,-0.78323,-0.59558,87.999,-0.67372,0.16919,-0.00018616,0.68,0.68,0
0.22116,0.010495,0.31298,-0.78195,-0.62295,-0.57796,0.003931,0,0,-0.53038,-0.11697,0,0.020441,0,0,0.57119,-0.0093795,0,0.57127,-0.62285,-0.78205,-0.57796,88.585,-0.66095,0.18576,-0.0002655,0.7,0.68,0
0.21012,0.010227,0.29013,-0.78103,-0.60344,-0.5604,0.0030376,0,0,-0.57362,-0.11189,0,0.015795,0,0,0.57143,-0.0081012,0,0.57149,-0.60339,-0.78108,-0.5604,89.02,-0.64829,0.20263,-0.00036335,0.72,0.68,0
0.19821,0.009942,0.26726,-0.7803,-0.584,-0.54292,0.0022261,0,0,-0.61718,-0.10681,0,0.011576,0,0,0.5719,-0.0068308,0,0.57194,-0.58398,-0.78033,-0.54292,89.35,-0.63574,0.21977,-0.00048167,0.74,0.68,0
0.18543,0.0096485,0.24438,-0.77977,-0.56467,-0.52552,0.0014984,0,0,-0.66104,-0.10179,0,0.0077916,0,0,0.5726,-0.0055483,0,0.57263,-0.56466,-0.77977,-0.52552,89.601,-0.62332,0.23712,-0.00062236,0.76,0.68,0
0.17177,0.0093572,0.22146,-0.77941,-0.54546,-0.50819,0.00086906,0,0,-0.70519,-0.096895,0,0.0045191,0,0,0.57357,-0.0042418,0,0.57359,-0.54545,-0.77942,-0.50819,89.787,-0.61102,0.25465,-0.00078723,0.78,0.68,0
0.15722,0.0090789,0.19849,-0.77923,-0.52641,-0.49094,0.0003634,0,0,-0.74955,-0.09224,0,0.0018897,0,0,0.57483,-0.0029133,0,0.57484,-0.52641,-0.77923,-0.49094,89.918,-0.59886,0.27229,-0.00097779,0.8,0.68,0
0.14179,0.0088253,0.17547,-0.77917,-0.5076,-0.47376,1.1782e-05,0,0,-0.79405,-0.087965,0,6.1268e-05,0,0,0.57639,-0.0015839,0,0.57639,-0.5076,-0.77917,-0.47376,89.998,-0.58684,0.28997,-0.001195,0.82,0.68,0
0.12546,0.0086083,0.15238,-0.77919,-0.48907,-0.45667,-0.0001603,0,0,-0.83856,-0.084252,0,-0.00083358,0,0,0.57825,-0.00030031,0,0.57825,-0.48907,-0.77919,-0.45667,-89.968,-0.57498,0.3076,-0.001439,0.84,0.68,0
0.10825,0.0084391,0.12921,-0.77921,-0.47091,-0.43964,-0.00014523,0,0,-0.88289,-0.081296,0,-0.0007552,0,0,0.58039,0.00086227,0,0.58039,-0.47091,-0.77921,-0.43964,-89.973,-0.56325,0.32507,-0.0017093,0.86,0.68,0
0.090146,0.008326,0.10595,-0.77918,-0.45316,-0.42268,3.5305e-05,0,0,-0.9269,-0.079263,0,0.00018359,0,0,0.58272,0.0018043,0,0.58273,-0.45316,-0.77918,-0.42268,89.994,-0.55167,0.34228,-0.0020045,0.88,0.68,0
0.07117,0.0082725,0.08259,-0.77901,-0.43583,-0.40575,0.00032828,0,0,-0.97049,-0.07822,0,0.001707,0,0,0.58513,0.0024163,0,0.58513,-0.43583,-0.77901,-0.40575,89.945,-0.5402,0.35917,-0.0023235,0.9,0.68,0
0.051326,0.0082758,0.059138,-0.77869,-0.41886,-0.38883,0.00066149,0,0,-1.0136,-0.07808,0,0.0034398,0,0,0.58742,0.002605,0,0.58742,-0.41886,-0.77869,-0.38883,89.895,-0.5288,0.37574,-0.0026659,0.92,0.68,0
0.030625,0.0083278,0.035597,-0.77851,-0.43657,-0.39122,0.00096662,0,0,-0.76224,-0.078605,0,0.0035365,0,0,0.58979,0.0034872,0,0.5898,-0.43657,-0.77852,-0.39122,89.835,-0.53544,0.36703,-0.0024153,0.94,0.68,0
0.020837,0.0083576,0.023776,-0.77832,-0.4551,-0.3938,0.0010401,0,0,-0.49988,-0.079684,0,0.0027043,0,0,0.59238,0.0037113,0,0.59239,-0.45509,-0.77833,-0.3938,89.816,-0.54241,0.35784,-0.0021225,0.96,0.68,0
0.01063,0.0083887,0.011902,-0.77759,-0.43903,-0.37689,0.0006736,0,0,-0.52092,-0.080782,0,0.0017514,0,0,0.59439,0.0020568,0,0.5944,-0.43903,-0.7776,-0.37689,89.886,-0.53117,0.37353,-0.002429,0.98,0.68,0
0,0.0084012,0,-0.76233,-0.41596,-0.35349,0.00024139,0,0,-0.53149,-0.081219,0,0.00062763,0,0,0.5951,-3.2526e-19,0,0.5951,-0.41596,-0.76233,-0.35349,89.96,-0.51059,0.38146,-0.0025949,1,0.68,0
0,0.0007544,1,-0.89055,-2.0509,-1.8824,0.00069171,0,0,1.2894,-0.21898,0,0.0017984,0,0,0.56652,1.0039e-15,0,0.56651,-0.89055,-2.0509,-1.8824,0.034156,-1.6079,1.0859,0.060473,0,0.7,0
0.025789,0.00079037,0.98867,-0.87225,-2.0344,-1.8607,0.0028034,0,0,1.2849,-0.22585,0,0.0072889,0,0,0.56298,-0.0051868,0,0.56301,-0.87224,-2.0344,-1.8607,0.13821,-1.5891,1.0858,0.060105,0.02,0.7,0
0.051397,0.00088344,0.97748,-0.86118,-2.0341,-1.8461,0.0046742,0,0,1.2804,-0.24444,0,0.012153,0,0,0.55305,-0.0096601,0,0.55318,-0.86116,-2.0341,-1.8461,0.22832,-1.5804,1.0912,0.060097,0.04,0.7,0
0.077003,0.00099085,0.96655,-0.83218,-1.6142,-1.4588,0.0051523,0,0,0.98918,-0.26936,0,0.019722,0,0,0.54066,-0.009656,0,0.5408,-0.83213,-1.6143,-1.4588,0.50525,-1.3017,0.71794,0.03106,0.06,0.7,0
0.090965,0.0013215,0.94516,-0.8053,-1.2078,-1.0765,0.004359,0,0,0.70512,-0.3413,0,0.022667,0,0,0.53011,-0.0085507,0,0.5302,-0.80526,-1.2078,-1.0765,0.62045,-1.0299,0.35558,0.0012927,0.08,0.7,0
0.10521,0.001529,0.92414,-0.79008,-1.2187,-1.0647,0.0030359,0,0,0.71404,-0.40045,0,0.015787,0,0,0.52113,-0.010046,0,0.52125,-0.79006,-1.2188,-1.0647,0.40577,-1.0245,0.37612,0.0012695,0.1,0.7,0
0.11953,0.0015987,0.90347,-0.77781,-1.2219,-1.0516,0.0019543,0,0,0.71195,-0.44259,0,0.010162,0,0,0.51285,-0.011186,0,0.51299,-0.7778,-1.2219,-1.0516,0.25216,-1.0171,0.38805,0.0011733,0.12,0.7,0
0.13368,0.0015646,0.88311,-0.7688,-1.2178,-1.0375,0.0016432,0,0,0.69875,-0.46877,0,0.0085449,0,0,0.50597,-0.012247,0,0.50613,-0.76879,-1.2179,-1.0375,0.20967,-1.0081,0.3914,0.0010262,0.14,0.7,0
0.14748,0.0014825,0.86299,-0.76259,-1.2082,-1.0227,0.0022146,0,0,0.67636,-0.4822,0,0.011516,0,0,0.50079,-0.013407,0,0.50097,-0.76258,-1.2082,-1.0227,0.28475,-0.99784,0.38772,0.00085418,0.16,0.7,0
0.16074,0.0014088,0.84305,-0.75851,-1.1943,-1.0074,0.0035448,0,0,0.64703,-0.48603,0,0.018433,0,0,0.49736,-0.014716,0,0.49757,-0.75848,-1.1943,-1.0074,0.46601,-0.98672,0.37872,0.00067818,0.18,0.7,0
0.17336,0.0013879,0.8232,-0.756,-1.1771,-0.99153,0.0054047,0,0,0.61237,-0.48245,0,0.028104,0,0,0.49562,-0.016132,0,0.49588,-0.75593,-1.1772,-0.99153,0.73523,-0.97487,0.36564,0.00051147,0.2,0.7,0
0.18524,0.0014491,0.8034,-0.75483,-1.157,-0.97525,0.0075474,0,0,0.5731,-0.47259,0,0.039246,0,0,0.49556,-0.017562,0,0.49587,-0.75469,-1.1572,-0.97525,1.0747,-0.96237,0.34909,0.00036143,0.22,0.7,0
0.19628,0.001606,0.78356,-0.75505,-1.1341,-0.95853,0.0097342,0,0,0.52906,-0.45654,0,0.050618,0,0,0.49719,-0.018902,0,0.49755,-0.7548,-1.1344,-0.95853,1.47,-0.94923,0.32902,0.00023206,0.24,0.7,0
0.2064,0.001858,0.76362,-0.75694,-1.108,-0.94129,0.011752,0,0,0.47933,-0.43345,0,0.06111,0,0,0.50059,-0.020062,0,0.50099,-0.75655,-1.1084,-0.94129,1.9151,-0.93541,0.30484,0.00012618,0.26,0.7,0
0.21546,0.0021925,0.74351,-0.76094,-1.0779,-0.92342,0.01346,0,0,0.42247,-0.40177,0,0.069992,0,0,0.50578,-0.021018,0,0.50623,-0.76036,-1.0785,-0.92342,2.4269,-0.92077,0.27556,4.6545e-05,0.28,0.7,0
0.2233,0.0025912,0.72316,-0.7673,-1.0431,-0.90471,0.014827,0,0,0.35726,-0.3599,0,0.077102,0,0,0.51261,-0.021853,0,0.51309,-0.76651,-1.0439,-0.90471,3.0682,-0.90505,0.24025,-4.5024e-06,0.3,0.7,0
0.22975,0.003038,0.7025,-0.77585,-1.0033,-0.88499,0.015997,0,0,0.28378,-0.30758,0,0.083184,0,0,0.52064,-0.022742,0,0.52115,-0.77473,-1.0044,-0.88499,4.0035,-0.88804,0.19897,-2.7888e-05,0.32,0.7,0
0.23465,0.003527,0.68151,-0.79421,-1.2747,-1.1318,0.017408,0,0,0.50015,-0.24769,0,0.067272,0,0,0.53123,-0.035779,0,0.5326,-0.79325,-1.2757,-1.1318,3.1961,-1.0669,0.43173,0.0065348,0.34,0.7,0
0.24975,0.0031851,0.67076,-0.81297,-1.546,-1.3784,0.019798,0,0,0.73512,-0.21781,0,0.051474,0,0,0.54541,-0.049197,0,0.54768,-0.81243,-1.5465,-1.3784,1.546,-1.2458,0.66615,0.011986,0.36,0.7,0
0.26405,0.0029131,0.65969,-0.82161,-1.5038,-1.3573,0.022046,0,0,0.6964,-0.19039,0,0.057319,0,0,0.55976,-0.050934,0,0.56211,-0.8209,-1.5045,-1.3573,1.8491,-1.2276,0.62316,0.01013,0.38,0.7,0
0.27761,0.0026907,0.64837,-0.82738,-1.466,-1.3364,0.023573,0,0,0.66171,-0.16852,0,0.06129,0,0,0.57127,-0.052407,0,0.57369,-0.82651,-1.4669,-1.3364,2.111,-1.2099,0.58613,0.0086386,0.4,0.7,0
0.29052,0.0024922,0.63684,-0.82154,-1.1618,-1.0727,0.024278,0,0,0.33004,-0.15461,0,0.094756,0,0,0.579,-0.039848,0,0.58053,-0.81702,-1.1664,-1.0727,10.329,-1.0187,0.32123,0.0039782,0.42,0.7,0
0.29081,0.0035648,0.61357,-0.81423,-0.86839,-0.81157,0.023943,0,0,-0.006913,-0.14772,0,0.1245,0,0,0.58253,-0.026546,0,0.58314,-0.80516,-0.87745,-0.81157,20.742,-0.8314,0.069309,-1.6608e-05,0.44,0.7,0
0.29024,0.0046007,0.59024,-0.81201,-0.84921,-0.79349,0.022774,0,0,-0.048167,-0.14488,0,0.11843,0,0,0.58339,-0.026005,0,0.58397,-0.80121,-0.86002,-0.79349,25.381,-0.81824,0.063024,-1.2209e-05,0.46,0.7,0
0.28888,0.0055451,0.5669,-0.80898,-0.83082,-0.77539,0.020959,0,0,-0.087333,-0.14412,0,0.10898,0,0,0.58303,-0.025017,0,0.58356,-0.79627,-0.84353,-0.77539,31.239,-0.80507,0.060471,-6.9622e-06,0.48,0.7,0
0.28675,0.0063632,0.5436,-0.80562,-0.81268,-0.75729,0.018794,0,0,-0.12567,-0.14401,0,0.097728,0,0,0.58192,-0.023694,0,0.5824,-0.79003,-0.82827,-0.75729,39.687,-0.79186,0.061535,-1.6014e-06,0.5,0.7,0
0.28386,0.0070396,0.52035,-0.80227,-0.79446,-0.73919,0.016522,0,0,-0.164,-0.14369,0,0.085915,0,0,0.58044,-0.022157,0,0.58086,-0.78138,-0.81534,-0.73919,51.649,-0.77864,0.066075,2.7569e-06,0.52,0.7,0
0.28019,0.0075723,0.49716,-0.7991,-0.77602,-0.72112,0.014311,0,0,-0.20275,-0.14275,0,0.074417,0,0,0.57884,-0.020518,0,0.57921,-0.76918,-0.80594,-0.72112,64.44,-0.76541,0.073678,4.6854e-06,0.54,0.7,0
0.27575,0.0079694,0.47404,-0.7962,-0.75732,-0.70308,0.012262,0,0,-0.24212,-0.14103,0,0.063762,0,0,0.57731,-0.018863,0,0.57762,-0.75378,-0.79975,-0.70308,73.879,-0.7522,0.083751,2.5535e-06,0.56,0.7,0
0.27051,0.0082441,0.45098,-0.7936,-0.73838,-0.68508,0.010425,0,0,-0.28215,-0.13856,0,0.05421,0,0,0.57593,-0.017253,0,0.57619,-0.73647,-0.79551,-0.68508,79.659,-0.73902,0.095706,-5.3808e-06,0.58,0.7,0
0.26446,0.0084123,0.42797,-0.7913,-0.71923,-0.66714,0.0088132,0,0,-0.32281,-0.13543,0,0.045829,0,0,0.57476,-0.015726,0,0.57498,-0.71817,-0.79236,-0.66714,83.128,-0.72589,0.10906,-2.091e-05,0.6,0.7,0
0.25759,0.0084902,0.405,-0.78927,-0.69993,-0.64926,0.0074171,0,0,-0.36403,-0.13175,0,0.038569,0,0,0.57382,-0.014299,0,0.574,-0.69932,-0.78988,-0.64926,85.286,-0.71282,0.12345,-4.5845e-05,0.62,0.7,0
0.2499,0.0084936,0.38206,-0.78749,-0.68054,-0.63144,0.0062143,0,0,-0.40574,-0.12765,0,0.032315,0,0,0.57312,-0.012974,0,0.57326,-0.68017,-0.78785,-0.63144,86.686,-0.69982,0.13863,-8.2007e-05,0.64,0.7,0
0.24136,0.0084367,0.35915,-0.78595,-0.66108,-0.61368,0.0051767,0,0,-0.4479,-0.12323,0,0.026919,0,0,0.57264,-0.011741,0,0.57276,-0.66086,-0.78617,-0.61368,87.63,-0.6869,0.1544,-0.00013123,0.66,0.7,0
0.23198,0.0083321,0.33625,-0.78463,-0.6416,-0.59599,0.0042758,0,0,-0.49046,-0.11857,0,0.022234,0,0,0.57239,-0.010587,0,0.57249,-0.64147,-0.78476,-0.59599,88.289,-0.67407,0.17063,-0.00019537,0.68,0.7,0
0.22174,0.008191,0.31336,-0.78352,-0.62213,-0.57837,0.0034863,0,0,-0.53338,-0.11377,0,0.018129,0,0,0.57238,-0.0094934,0,0.57246,-0.62205,-0.7836,-0.57837,88.763,-0.66134,0.18724,-0.00027631,0.7,0.7,0
0.21065,0.0080233,0.29046,-0.78261,-0.60269,-0.56082,0.0027887,0,0,-0.57666,-0.10887,0,0.014501,0,0,0.57259,-0.0084394,0,0.57266,-0.60265,-0.78265,-0.56082,89.112,-0.64871,0.20416,-0.00037594,0.72,0.7,0
0.19868,0.0078377,0.26755,-0.7819,-0.58333,-0.54334,0.0021713,0,0,-0.62025,-0.10397,0,0.011291,0,0,0.57305,-0.0074069,0,0.5731,-0.58331,-0.78192,-0.54334,89.374,-0.63619,0.22132,-0.00049615,0.74,0.7,0
0.18584,0.0076427,0.24461,-0.78137,-0.56407,-0.52594,0.0016306,0,0,-0.66412,-0.09914,0,0.0084791,0,0,0.57377,-0.0063802,0,0.5738,-0.56406,-0.78138,-0.52594,89.57,-0.62379,0.23868,-0.00063869,0.76,0.7,0
0.17211,0.0074466,0.22165,-0.781,-0.54495,-0.50861,0.0011717,0,0,-0.70821,-0.094489,0,0.006093,0,0,0.57475,-0.0053494,0,0.57477,-0.54494,-0.781,-0.50861,89.716,-0.61152,0.25617,-0.00080512,0.78,0.7,0
0.15751,0.0072577,0.19863,-0.78075,-0.52602,-0.49135,0.00080625,0,0,-0.75245,-0.090148,0,0.0041925,0,0,0.57601,-0.0043128,0,0.57602,-0.52602,-0.78076,-0.49135,89.819,-0.59938,0.27372,-0.00099659,0.8,0.7,0
0.14202,0.0070848,0.17557,-0.7806,-0.50735,-0.47417,0.00054821,0,0,-0.79672,-0.086269,0,0.0028507,0,0,0.57754,-0.0032808,0,0.57755,-0.50735,-0.7806,-0.47417,89.885,-0.58737,0.29126,-0.0012137,0.82,0.7,0
0.12564,0.0069365,0.15243,-0.78047,-0.48898,-0.45705,0.000408,0,0,-0.84089,-0.083018,0,0.0021216,0,0,0.57933,-0.0022781,0,0.57934,-0.48898,-0.78047,-0.45705,89.92,-0.5755,0.3087,-0.0014565,0.84,0.7,0
0.10838,0.0068204,0.12922,-0.78032,-0.47098,-0.44,0.00038506,0,0,-0.88483,-0.080544,0,0.0020023,0,0,0.58133,-0.0013446,0,0.58133,-0.47098,-0.78032,-0.44,89.929,-0.56376,0.32594,-0.0017243,0.86,0.7,0
0.090246,0.0067426,0.10593,-0.78009,-0.45336,-0.423,0.00046254,0,0,-0.92844,-0.078941,0,0.0024052,0,0,0.58345,-0.00053201,0,0.58345,-0.45336,-0.78009,-0.423,89.919,-0.55215,0.34292,-0.0020165,0.88,0.7,0
0.071243,0.006706,0.082543,-0.77974,-0.43611,-0.40603,0.00060713,0,0,-0.97166,-0.078206,0,0.0031571,0,0,0.58558,0.00010474,0,0.58558,-0.4361,-0.77974,-0.40603,89.899,-0.54062,0.35962,-0.0023324,0.9,0.7,0
0.051379,0.0067103,0.059078,-0.77926,-0.41914,-0.38906,0.00077635,0,0,-1.0145,-0.078216,0,0.004037,0,0,0.58754,0.00052063,0,0.58754,-0.41914,-0.77926,-0.38906,89.876,-0.52916,0.37606,-0.0026727,0.92,0.7,0
0.030662,0.0067518,0.03554,-0.77905,-0.43685,-0.39143,0.00089685,0,0,-0.76288,-0.078741,0,0.0033419,0,0,0.58951,0.0010443,0,0.58951,-0.43685,-0.77905,-0.39143,89.847,-0.53578,0.36733,-0.0024209,0.94,0.7,0
0.020864,0.0067654,0.023729,-0.7788,-0.45494,-0.39385,0.0008161,0,0,-0.50043,-0.079422,0,0.0021219,0,0,0.59161,0.0012354,0,0.59161,-0.45494,-0.7788,-0.39385,89.856,-0.54253,0.35833,-0.0021333,0.96,0.7,0
0.010645,0.0067799,0.011876,-0.77807,-0.43847,-0.37684,0.00048591,0,0,-0.5216,-0.080121,0,0.0012634,0,0,0.59323,0.0007185,0,0.59323,-0.43847,-0.77807,-0.37684,89.918,-0.53113,0.37425,-0.0024478,0.98,0.7,0
0,0.0067858,0,-0.76286,-0.41529,-0.35345,0.00011398,0,0,-0.53224,-0.080399,0,0.00029634,0,0,0.59379,-1.9732e-17,0,0.59379,-0.41529,-0.76286,-0.35345,89.981,-0.51053,0.38226,-0.0026175,1,0.7,0
0,-0.0036673,1,-0.89105,-2.0492,-1.8821,-0.0017982,0,0,1.2883,-0.21727,0,-0.0046753,0,0,0.56513,-5.7766e-16,0,0.56512,-0.89105,-2.0492,-1.8821,-0.08896,-1.6075,1.0843,0.060263,0,0.72,0
0.025767,-0.0037608,0.9887,-0.87273,-2.0329,-1.8604,-0.0058541,0,0,1.2839,-0.22424,0,-0.015221,0,0,0.56157,0.0024172,0,0.56158,-0.8727,-2.0329,-1.8604,-0.2891,-1.5887,1.0843,0.059922,0.02,0.72,0
0.051358,-0.0040207,0.97754,-0.86149,-2.0328,-1.8458,-0.010426,0,0,1.2796,-0.2431,0,-0.027107,0,0,0.55158,0.0040429,0,0.55164,-0.8614,-2.0329,-1.8458,-0.50993,-1.58,1.0901,0.059977,0.04,0.72,0
0.076952,-0.0043933,0.96663,-0.8322,-1.6135,-1.4587,-0.012829,0,0,0.98901,-0.26836,0,-0.050393,0,0,0.53911,0.0031905,0,0.53916,-0.8319,-1.6138,-1.4587,-1.3101,-1.3015,0.71781,0.031025,0.06,0.72,0
0.090918,-0.005476,0.94531,-0.80506,-1.2078,-1.0765,-0.012611,0,0,0.70582,-0.34142,0,-0.065577,0,0,0.52846,0.0010626,0,0.52849,-0.80466,-1.2082,-1.0765,-1.7916,-1.0298,0.35646,0.0013013,0.08,0.72,0
0.10519,-0.0064494,0.92436,-0.78951,-1.2193,-1.0648,-0.010665,0,0,0.7158,-0.40163,0,-0.055458,0,0,0.51938,-0.00080729,0,0.5194,-0.78925,-1.2196,-1.0648,-1.4206,-1.0245,0.37752,0.0012815,0.1,0.72,0
0.11955,-0.007238,0.90376,-0.77692,-1.2229,-1.0518,-0.0079739,0,0,0.71478,-0.44484,0,-0.041464,0,0,0.51098,-0.0032773,0,0.511,-0.77678,-1.2231,-1.0518,-1.0239,-1.0172,0.38997,0.0011877,0.12,0.72,0
0.13378,-0.0078174,0.88348,-0.76759,-1.2194,-1.0378,-0.0050822,0,0,0.70263,-0.47206,0,-0.026427,0,0,0.50396,-0.0060974,0,0.50401,-0.76754,-1.2195,-1.0378,-0.64439,-1.0083,0.39388,0.001042,0.14,0.72,0
0.14766,-0.0081874,0.86344,-0.76111,-1.2102,-1.0231,-0.0021415,0,0,0.68123,-0.48645,0,-0.011136,0,0,0.49867,-0.0090839,0,0.49876,-0.7611,-1.2102,-1.0231,-0.2732,-0.99815,0.39076,0.00087044,0.16,0.72,0
0.16103,-0.0083516,0.84359,-0.7568,-1.1967,-1.0078,0.00087394,0,0,0.65272,-0.49106,0,0.0045445,0,0,0.49515,-0.01214,0,0.4953,-0.7568,-1.1967,-1.0078,0.11382,-0.98712,0.38225,0.00069375,0.18,0.72,0
0.17376,-0.0083088,0.82383,-0.75415,-1.1798,-0.9921,0.0040359,0,0,0.61867,-0.48802,0,0.020987,0,0,0.49338,-0.015227,0,0.49361,-0.75412,-1.1798,-0.9921,0.54319,-0.97535,0.36955,0.0005254,0.2,0.72,0
0.18577,-0.0080523,0.80412,-0.75292,-1.1599,-0.97591,0.0073967,0,0,0.57977,-0.47843,0,0.038463,0,0,0.49333,-0.018328,0,0.49367,-0.75279,-1.1601,-0.97591,1.0408,-0.96292,0.35324,0.00037316,0.22,0.72,0
0.19695,-0.0075707,0.78437,-0.75315,-1.1371,-0.95926,0.010995,0,0,0.53588,-0.4624,0,0.057173,0,0,0.49505,-0.02142,0,0.49551,-0.75284,-1.1374,-0.95926,1.6389,-0.94984,0.33336,0.00024137,0.24,0.72,0
0.20721,-0.006849,0.76451,-0.75512,-1.111,-0.94209,0.01486,0,0,0.48611,-0.43914,0,0.07727,0,0,0.49861,-0.02445,0,0.49921,-0.7545,-1.1116,-0.94209,2.3869,-0.93607,0.30939,0.00013307,0.26,0.72,0
0.2164,-0.0058705,0.74448,-0.75925,-1.0809,-0.92427,0.018958,0,0,0.42905,-0.40713,0,0.098583,0,0,0.50401,-0.027302,0,0.50476,-0.75814,-1.082,-0.92427,3.362,-0.92146,0.28048,5.1085e-05,0.28,0.72,0
0.22437,-0.0046255,0.72419,-0.76583,-1.0458,-0.9056,0.023093,0,0,0.36341,-0.36466,0,0.12008,0,0,0.51109,-0.029787,0,0.51198,-0.76394,-1.0477,-0.9056,4.6829,-0.90576,0.24579,-2.2386e-06,0.3,0.72,0
0.23094,-0.0031291,0.70359,-0.77469,-1.0056,-0.88587,0.026722,0,0,0.28908,-0.31121,0,0.13896,0,0,0.51938,-0.03167,0,0.52037,-0.77163,-1.0086,-0.88587,6.5167,-0.88871,0.20528,-2.7623e-05,0.32,0.72,0
0.23593,-0.0014443,0.68264,-0.79352,-1.277,-1.1331,0.029377,0,0,0.50396,-0.24937,0,0.11373,0,0,0.5303,-0.049185,0,0.53285,-0.79083,-1.2797,-1.1331,5.2727,-1.0679,0.43728,0.0066381,0.34,0.72,0
0.25109,-0.0011859,0.6719,-0.81294,-1.5479,-1.3802,0.031253,0,0,0.7374,-0.21811,0,0.081257,0,0,0.54491,-0.065571,0,0.5489,-0.81161,-1.5493,-1.3802,2.4304,-1.247,0.66933,0.01215,0.36,0.72,0
0.26543,-0.00090188,0.66084,-0.82225,-1.5041,-1.3587,0.031125,0,0,0.69744,-0.18893,0,0.080924,0,0,0.55973,-0.064359,0,0.56346,-0.82083,-1.5055,-1.3587,2.6083,-1.2284,0.62436,0.01021,0.38,0.72,0
0.27899,-0.00067561,0.64951,-0.82865,-1.4648,-1.3375,0.028717,0,0,0.66156,-0.16541,0,0.074663,0,0,0.57173,-0.062455,0,0.57515,-0.82736,-1.4661,-1.3375,2.5795,-1.2103,0.58513,0.0086394,0.4,0.72,0
0.29189,-0.00058466,0.63797,-0.82329,-1.1602,-1.0735,0.025324,0,0,0.32816,-0.15027,0,0.097328,0,0,0.57988,-0.045246,0,0.58185,-0.81856,-1.165,-1.0735,10.716,-1.019,0.31902,0.0039586,0.42,0.72,0
0.29212,0.00065063,0.61466,-0.81628,-0.86686,-0.81227,0.022637,0,0,-0.010419,-0.14193,0,0.11772,0,0,0.5837,-0.028054,0,0.58437,-0.80763,-0.87552,-0.81227,20.916,-0.83181,0.065685,-1.431e-05,0.44,0.72,0
0.29147,0.0017613,0.59128,-0.8142,-0.84723,-0.79407,0.020385,0,0,-0.052343,-0.13822,0,0.106,0,0,0.58475,-0.026025,0,0.58533,-0.80448,-0.85695,-0.79407,25.494,-0.8185,0.058377,-9.132e-06,0.46,0.72,0
0.29002,0.0027308,0.56788,-0.81119,-0.82862,-0.77588,0.018075,0,0,-0.091802,-0.1371,0,0.09399,0,0,0.58453,-0.02409,0,0.58503,-0.79984,-0.83997,-0.77588,32.133,-0.80523,0.056086,-3.811e-06,0.48,0.72,0
0.2878,0.0035546,0.54451,-0.80777,-0.81043,-0.75772,0.01582,0,0,-0.13014,-0.13705,0,0.082264,0,0,0.58351,-0.022247,0,0.58394,-0.79323,-0.82498,-0.75772,42.601,-0.79197,0.058278,9.8139e-07,0.5,0.72,0
0.28482,0.0042358,0.5212,-0.8043,-0.7923,-0.73958,0.013696,0,0,-0.16827,-0.13708,0,0.071217,0,0,0.58206,-0.020501,0,0.58242,-0.78335,-0.81325,-0.73958,56.827,-0.77873,0.064177,4.3309e-06,0.52,0.72,0
0.28107,0.0047831,0.49795,-0.80098,-0.77404,-0.72148,0.011751,0,0,-0.2067,-0.13665,0,0.061103,0,0,0.58045,-0.018859,0,0.58076,-0.76963,-0.80539,-0.72148,69.453,-0.7655,0.072928,5.0311e-06,0.54,0.72,0
0.27655,0.0052087,0.47476,-0.79793,-0.75555,-0.70343,0.010011,0,0,-0.2457,-0.13553,0,0.05206,0,0,0.57886,-0.017328,0,0.57912,-0.7533,-0.80017,-0.70343,77.354,-0.7523,0.083799,1.628e-06,0.56,0.72,0
0.27124,0.0055267,0.45164,-0.79518,-0.73683,-0.68542,0.008487,0,0,-0.28536,-0.13366,0,0.044132,0,0,0.57739,-0.015913,0,0.57761,-0.73562,-0.79639,-0.68542,81.89,-0.73914,0.096242,-7.5102e-06,0.58,0.72,0
0.26514,0.0057515,0.42857,-0.79274,-0.7179,-0.66748,0.0071712,0,0,-0.32567,-0.1311,0,0.03729,0,0,0.57612,-0.014613,0,0.57631,-0.71722,-0.79342,-0.66748,84.576,-0.72604,0.10987,-2.4129e-05,0.6,0.72,0
0.25822,0.0058976,0.40555,-0.7906,-0.6988,-0.6496,0.006049,0,0,-0.36661,-0.12793,0,0.031455,0,0,0.57508,-0.013425,0,0.57524,-0.6984,-0.79099,-0.6496,86.246,-0.713,0.1244,-5.0043e-05,0.62,0.72,0
0.25047,0.0059784,0.38257,-0.78873,-0.67957,-0.63177,0.0050991,0,0,-0.40809,-0.12427,0,0.026515,0,0,0.57428,-0.012339,0,0.57441,-0.67933,-0.78897,-0.63177,87.332,-0.70003,0.13963,-8.7107e-05,0.64,0.72,0
0.24189,0.0060062,0.35961,-0.78713,-0.66025,-0.61402,0.0042976,0,0,-0.45009,-0.12021,0,0.022347,0,0,0.57372,-0.011343,0,0.57383,-0.66011,-0.78728,-0.61402,88.062,-0.68714,0.15543,-0.00013721,0.66,0.72,0
0.23247,0.0059917,0.33667,-0.78577,-0.64089,-0.59633,0.0036205,0,0,-0.49254,-0.11584,0,0.018827,0,0,0.57341,-0.010424,0,0.5735,-0.6408,-0.78586,-0.59633,88.569,-0.67433,0.17167,-0.00020227,0.68,0.72,0
0.22219,0.0059444,0.31374,-0.78465,-0.62151,-0.57871,0.0030456,0,0,-0.53542,-0.11127,0,0.015837,0,0,0.57334,-0.0095675,0,0.57342,-0.62145,-0.7847,-0.57871,88.931,-0.66162,0.18829,-0.00028421,0.7,0.72,0
0.21105,0.0058725,0.2908,-0.78373,-0.60215,-0.56117,0.0025539,0,0,-0.57867,-0.10656,0,0.01328,0,0,0.57352,-0.0087572,0,0.57358,-0.60212,-0.78377,-0.56117,89.194,-0.64902,0.20521,-0.00038496,0.72,0.72,0
0.19904,0.0057832,0.26786,-0.78302,-0.58285,-0.54369,0.0021307,0,0,-0.62226,-0.10182,0,0.01108,0,0,0.57396,-0.007979,0,0.57401,-0.58283,-0.78304,-0.54369,89.39,-0.63652,0.22238,-0.00050636,0.74,0.72,0
0.18616,0.005683,0.24489,-0.78249,-0.56365,-0.52629,0.0017662,0,0,-0.66613,-0.097154,0,0.0091842,0,0,0.57466,-0.0072192,0,0.57471,-0.56364,-0.7825,-0.52629,89.538,-0.62414,0.23974,-0.00065011,0.76,0.72,0
0.1724,0.0055777,0.22188,-0.78211,-0.5446,-0.50895,0.0014556,0,0,-0.71021,-0.092675,0,0.0075693,0,0,0.57564,-0.0064666,0,0.57568,-0.54459,-0.78212,-0.50895,89.649,-0.61189,0.25721,-0.00081764,0.78,0.72,0
0.15775,0.005473,0.19884,-0.78185,-0.52575,-0.49169,0.0011985,0,0,-0.75439,-0.088535,0,0.0062322,0,0,0.5769,-0.0057128,0,0.57693,-0.52574,-0.78185,-0.49169,89.732,-0.59976,0.27472,-0.0010099,0.8,0.72,0
0.14222,0.0053745,0.17573,-0.78164,-0.50716,-0.47451,0.00099711,0,0,-0.79856,-0.084892,0,0.005185,0,0,0.57842,-0.0049539,0,0.57845,-0.50715,-0.78165,-0.47451,89.792,-0.58777,0.29219,-0.0012274,0.82,0.72,0
0.12581,0.0052876,0.15256,-0.78145,-0.48888,-0.45738,0.00085414,0,0,-0.84259,-0.081904,0,0.0044415,0,0,0.58019,-0.0041913,0,0.5802,-0.48888,-0.78146,-0.45738,89.833,-0.57591,0.30953,-0.0014701,0.84,0.72,0
0.10852,0.0052173,0.12932,-0.78122,-0.47097,-0.44032,0.00076974,0,0,-0.88636,-0.079699,0,0.0040026,0,0,0.58213,-0.0034324,0,0.58214,-0.47097,-0.78122,-0.44032,89.858,-0.56417,0.32666,-0.0017373,0.86,0.72,0
0.090357,0.0051684,0.10599,-0.7809,-0.45342,-0.42329,0.00073902,0,0,-0.92979,-0.078337,0,0.0038429,0,0,0.58417,-0.0026894,0,0.58418,-0.45342,-0.7809,-0.42329,89.871,-0.55254,0.34354,-0.0020285,0.88,0.72,0
0.071328,0.0051442,0.082582,-0.78048,-0.43622,-0.4063,0.00075107,0,0,-0.97286,-0.077784,0,0.0039055,0,0,0.58618,-0.0019772,0,0.58618,-0.43621,-0.78048,-0.4063,89.875,-0.541,0.36015,-0.0023436,0.9,0.72,0
0.051442,0.0051472,0.059096,-0.77993,-0.41927,-0.38931,0.00079007,0,0,-1.0156,-0.077896,0,0.0041084,0,0,0.58801,-0.0013097,0,0.58801,-0.41926,-0.77993,-0.38931,89.874,-0.5295,0.37654,-0.0026835,0.92,0.72,0
0.030704,0.0051782,0.035541,-0.7797,-0.43689,-0.39163,0.00078281,0,0,-0.76372,-0.078447,0,0.0029514,0,0,0.58981,-0.0010426,0,0.58981,-0.43689,-0.7797,-0.39163,89.867,-0.53607,0.36784,-0.0024321,0.94,0.72,0
0.020893,0.0051807,0.023726,-0.77942,-0.45472,-0.39397,0.00061259,0,0,-0.50109,-0.078981,0,0.0015927,0,0,0.59171,-0.00085323,0,0.59171,-0.45472,-0.77942,-0.39397,89.892,-0.5427,0.35895,-0.0021478,0.96,0.72,0
0.01066,0.0051839,0.011873,-0.7787,-0.43808,-0.37691,0.00033079,0,0,-0.52234,-0.079519,0,0.00086005,0,0,0.59316,-0.00040229,0,0.59316,-0.43808,-0.7787,-0.37691,89.944,-0.53123,0.37497,-0.0024667,0.98,0.72,0
0,0.0051853,0,-0.7635,-0.41483,-0.3535,2.7479e-05,0,0,-0.533,-0.079732,0,7.1444e-05,0,0,0.59366,-3.6456e-18,0,0.59366,-0.41483,-0.7635,-0.3535,89.996,-0.51061,0.38304,-0.0026385,1,0.72,0
0,-0.0079364,1,-0.89859,-2.0369,-1.8806,-0.0046726,0,0,1.2767,-0.20313,0,-0.012149,0,0,0.57136,-2.1771e-16,0,0.57134,-0.89857,-2.0369,-1.8806,-0.23519,-1.6054,1.0688,0.058215,0,0.74,0
0.025534,-0.0081793,0.98857,-0.87921,-2.022,-1.8589,-0.015511,0,0,1.2736,-0.21198,0,-0.040329,0,0,0.56702,0.010849,0,0.56713,-0.879,-2.0222,-1.8589,-0.7775,-1.5867,1.071,0.058173,0.02,0.74,0
0.050946,-0.0088406,0.97732,-0.8661,-2.0266,-1.8451,-0.027154,0,0,1.2727,-0.23588,0,-0.070601,0,0,0.55489,0.019292,0,0.55528,-0.86547,-2.0272,-1.8451,-1.3397,-1.5793,1.0822,0.058938,0.04,0.74,0
0.076442,-0.0097435,0.96638,-0.83432,-1.6125,-1.4588,-0.03223,0,0,0.9863,-0.26636,0,-0.1258,0,0,0.53981,0.017439,0,0.54018,-0.83249,-1.6143,-1.4588,-3.2475,-1.3019,0.71765,0.030757,0.06,0.74,0
0.090398,-0.012335,0.94508,-0.80544,-1.2115,-1.0776,-0.030507,0,0,0.70772,-0.34819,0,-0.15864,0,0,0.52717,0.011554,0,0.52733,-0.80316,-1.2138,-1.0776,-4.2721,-1.0315,0.36231,0.0013306,0.08,0.74,0
0.10475,-0.014536,0.9242,-0.78877,-1.2244,-1.0661,-0.024729,0,0,0.72095,-0.41174,0,-0.12859,0,0,0.51679,0.0090353,0,0.51689,-0.78737,-1.2258,-1.0661,-3.2385,-1.0264,0.38433,0.0013102,0.1,0.74,0
0.11924,-0.016195,0.90373,-0.77573,-1.2277,-1.0529,-0.018038,0,0,0.72067,-0.45459,0,-0.093798,0,0,0.50756,0.0049498,0,0.5076,-0.77502,-1.2285,-1.0529,-2.2816,-1.0188,0.39603,0.001209,0.12,0.74,0
0.13358,-0.017318,0.8836,-0.76642,-1.2236,-1.0388,-0.011908,0,0,0.70823,-0.48054,0,-0.061923,0,0,0.50016,0.00018079,0,0.50017,-0.76611,-1.224,-1.0388,-1.4909,-1.0096,0.39891,0.0010564,0.14,0.74,0
0.14757,-0.017975,0.86372,-0.75998,-1.2141,-1.0241,-0.0066461,0,0,0.68663,-0.49397,0,-0.03456,0,0,0.49475,-0.0047089,0,0.49477,-0.75989,-1.2142,-1.0241,-0.83837,-0.99937,0.39515,0.00088096,0.16,0.74,0
0.16104,-0.018233,0.84402,-0.75564,-1.2005,-1.0088,-0.001959,0,0,0.65832,-0.49822,0,-0.010187,0,0,0.49121,-0.0095359,0,0.4913,-0.75563,-1.2005,-1.0088,-0.25233,-0.98832,0.38647,0.00070255,0.18,0.74,0
0.1739,-0.018133,0.82442,-0.75285,-1.1837,-0.99316,0.0025209,0,0,0.6248,-0.49526,0,0.013109,0,0,0.48943,-0.014306,0,0.48964,-0.75284,-1.1837,-0.99316,0.33526,-0.97655,0.37393,0.00053353,0.2,0.74,0
0.18604,-0.017688,0.80486,-0.75142,-1.164,-0.97706,0.0071235,0,0,0.58668,-0.48609,0,0.037042,0,0,0.48936,-0.019096,0,0.48973,-0.75129,-1.1641,-0.97706,0.9888,-0.96417,0.35806,0.00038067,0.22,0.74,0
0.19737,-0.01689,0.78527,-0.75137,-1.1416,-0.96053,0.012144,0,0,0.54381,-0.47079,0,0.063149,0,0,0.49107,-0.023982,0,0.49165,-0.75099,-1.142,-0.96053,1.7808,-0.95117,0.3389,0.00024792,0.24,0.74,0
0.20779,-0.015708,0.76558,-0.75305,-1.1161,-0.94353,0.017854,0,0,0.49523,-0.44862,0,0.092838,0,0,0.49471,-0.02898,0,0.49556,-0.75218,-1.117,-0.94353,2.8088,-0.93755,0.31603,0.00013779,0.26,0.74,0
0.21717,-0.014093,0.7457,-0.75697,-1.0866,-0.92592,0.024424,0,0,0.43925,-0.41775,0,0.12701,0,0,0.50045,-0.033931,0,0.5016,-0.75518,-1.0884,-0.92592,4.2148,-0.92316,0.28861,5.3052e-05,0.28,0.74,0
0.22536,-0.011995,0.72554,-0.76375,-1.0519,-0.90747,0.031562,0,0,0.37369,-0.37558,0,0.16412,0,0,0.50825,-0.038337,0,0.50971,-0.76033,-1.0553,-0.90747,6.1777,-0.90771,0.25549,-3.6451e-06,0.3,0.74,0
0.23212,-0.0094105,0.70504,-0.77332,-1.0106,-0.8877,0.038163,0,0,0.29738,-0.31958,0,0.19845,0,0,0.51764,-0.04144,0,0.51932,-0.76733,-1.0166,-0.8877,8.9152,-0.89055,0.21591,-3.0641e-05,0.32,0.74,0
0.23725,-0.0064477,0.68413,-0.79334,-1.28,-1.1351,0.04248,0,0,0.50843,-0.25114,0,0.16439,0,0,0.53012,-0.063838,0,0.53439,-0.7879,-1.2854,-1.1351,7.35,-1.0695,0.44472,0.0067448,0.34,0.74,0
0.25246,-0.0055394,0.67338,-0.81435,-1.5482,-1.3821,0.04407,0,0,0.73814,-0.21588,0,0.11458,0,0,0.54663,-0.083243,0,0.55301,-0.81171,-1.5508,-1.3821,3.4244,-1.2482,0.67088,0.012265,0.36,0.74,0
0.26678,-0.0046443,0.66227,-0.82488,-1.5003,-1.3598,0.041141,0,0,0.69543,-0.18265,0,0.10697,0,0,0.56287,-0.078431,0,0.56835,-0.82239,-1.5028,-1.3598,3.4727,-1.2284,0.62141,0.010158,0.38,0.74,0
0.28028,-0.0039255,0.65087,-0.83211,-1.4585,-1.338,0.03427,0,0,0.65771,-0.15658,0,0.089102,0,0,0.5753,-0.072633,0,0.57988,-0.83024,-1.4604,-1.338,3.1223,-1.2095,0.57873,0.0084759,0.4,0.74,0
0.29309,-0.0035187,0.63926,-0.82669,-1.1547,-1.0739,0.026338,0,0,0.32237,-0.14013,0,0.099634,0,0,0.58323,-0.050559,0,0.58567,-0.82155,-1.1598,-1.0739,11.568,-1.0184,0.31272,0.0038561,0.42,0.74,0
0.29317,-0.0021124,0.61582,-0.81953,-0.86397,-0.81296,0.021166,0,0,-0.017087,-0.13264,0,0.11006,0,0,0.58667,-0.029468,0,0.58741,-0.81107,-0.87244,-0.81296,21.803,-0.83216,0.060451,-1.1308e-05,0.44,0.74,0
0.2924,-0.00092813,0.59232,-0.81697,-0.8446,-0.79463,0.017799,0,0,-0.058075,-0.12992,0,0.092557,0,0,0.58735,-0.025952,0,0.58793,-0.80825,-0.85332,-0.79463,26.09,-0.81873,0.0532,-6.058e-06,0.46,0.74,0
0.29085,6.0894e-05,0.56883,-0.81354,-0.82625,-0.77635,0.014992,0,0,-0.096691,-0.12973,0,0.077957,0,0,0.5868,-0.023072,0,0.58726,-0.80361,-0.83617,-0.77635,33.516,-0.80538,0.051878,-1.0962e-06,0.48,0.74,0
0.28854,0.00088134,0.54538,-0.80978,-0.80831,-0.75811,0.012648,0,0,-0.13433,-0.1305,0,0.065768,0,0,0.58551,-0.020705,0,0.58587,-0.79637,-0.82171,-0.75811,46.666,-0.79207,0.055454,3.0057e-06,0.5,0.74,0
0.28547,0.0015566,0.52199,-0.80603,-0.79041,-0.73993,0.010676,0,0,-0.17186,-0.13127,0,0.055515,0,0,0.58382,-0.01874,0,0.58413,-0.785,-0.81144,-0.73993,63.085,-0.77879,0.062633,5.4615e-06,0.52,0.74,0
0.28166,0.0021065,0.49867,-0.80248,-0.77238,-0.72179,0.0090076,0,0,-0.20978,-0.13153,0,0.046839,0,0,0.58202,-0.017087,0,0.58227,-0.76989,-0.80497,-0.72179,74.549,-0.76555,0.072326,5.1902e-06,0.54,0.74,0
0.27708,0.0025484,0.47543,-0.79923,-0.75412,-0.70372,0.0075947,0,0,-0.24834,-0.13104,0,0.039493,0,0,0.58026,-0.015676,0,0.58047,-0.75287,-0.80048,-0.70372,80.697,-0.75236,0.083799,8.3773e-07,0.56,0.74,0
0.27173,0.0028977,0.45225,-0.79632,-0.7356,-0.6857,0.0064034,0,0,-0.28761,-0.12974,0,0.033298,0,0,0.57865,-0.014455,0,0.57883,-0.73494,-0.79699,-0.6857,84.045,-0.73921,0.096591,-9.1609e-06,0.58,0.74,0
0.26558,0.0031684,0.42913,-0.79375,-0.71687,-0.66775,0.0054073,0,0,-0.32759,-0.1277,0,0.028118,0,0,0.57725,-0.013388,0,0.57741,-0.71649,-0.79413,-0.66775,85.997,-0.72612,0.11039,-2.6518e-05,0.6,0.74,0
0.25862,0.003373,0.40607,-0.7915,-0.69794,-0.64987,0.0045835,0,0,-0.36824,-0.12498,0,0.023834,0,0,0.5761,-0.012448,0,0.57623,-0.69771,-0.79172,-0.64987,87.202,-0.7131,0.125,-5.3044e-05,0.62,0.74,0
0.25085,0.003523,0.38305,-0.78955,-0.67885,-0.63204,0.0039108,0,0,-0.40951,-0.12171,0,0.020336,0,0,0.5752,-0.011613,0,0.57532,-0.67872,-0.78969,-0.63204,87.979,-0.70015,0.14025,-9.0614e-05,0.64,0.74,0
0.24224,0.0036285,0.36006,-0.78788,-0.65966,-0.61429,0.0033681,0,0,-0.45133,-0.11797,0,0.017514,0,0,0.57456,-0.010868,0,0.57466,-0.65958,-0.78797,-0.61429,88.496,-0.68728,0.15604,-0.00014115,0.66,0.74,0
0.2328,0.0036984,0.33708,-0.78647,-0.64041,-0.5966,0.002935,0,0,-0.49366,-0.11388,0,0.015262,0,0,0.57417,-0.0102,0,0.57426,-0.64035,-0.78653,-0.5966,88.849,-0.67449,0.17227,-0.00020662,0.68,0.74,0
0.2225,0.0037404,0.31412,-0.78531,-0.62111,-0.57899,0.0025912,0,0,-0.53645,-0.10952,0,0.013474,0,0,0.57405,-0.009595,0,0.57413,-0.62107,-0.78535,-0.57899,89.096,-0.6618,0.18887,-0.00028899,0.7,0.74,0
0.21134,0.0037607,0.29116,-0.78438,-0.60182,-0.56144,0.0023176,0,0,-0.57966,-0.10498,0,0.012051,0,0,0.57418,-0.0090433,0,0.57425,-0.60179,-0.78441,-0.56144,89.273,-0.64921,0.20579,-0.00039022,0.72,0.74,0
0.19931,0.0037647,0.26819,-0.78367,-0.58257,-0.54397,0.0020958,0,0,-0.62323,-0.10037,0,0.010898,0,0,0.57459,-0.0085332,0,0.57466,-0.58255,-0.78369,-0.54397,89.403,-0.63674,0.22295,-0.00051222,0.74,0.74,0
0.18641,0.0037566,0.24519,-0.78315,-0.56341,-0.52656,0.0019092,0,0,-0.66712,-0.0958,0,0.0099279,0,0,0.57528,-0.0080522,0,0.57534,-0.56339,-0.78316,-0.52656,89.502,-0.62437,0.24031,-0.00065668,0.76,0.74,0
0.17263,0.0037396,0.22216,-0.78278,-0.54439,-0.50923,0.001743,0,0,-0.71122,-0.091401,0,0.0090639,0,0,0.57625,-0.0075865,0,0.5763,-0.54437,-0.78279,-0.50923,89.581,-0.61213,0.25779,-0.00082505,0.78,0.74,0
0.15796,0.0037163,0.19909,-0.78253,-0.52556,-0.49197,0.0015854,0,0,-0.75545,-0.087328,0,0.0082443,0,0,0.57752,-0.0071197,0,0.57756,-0.52555,-0.78254,-0.49197,89.647,-0.60002,0.27532,-0.0010183,0.8,0.74,0
0.14241,0.0036892,0.17596,-0.78235,-0.50699,-0.47478,0.0014287,0,0,-0.79966,-0.08375,0,0.007429,0,0,0.57906,-0.0066326,0,0.5791,-0.50699,-0.78235,-0.47478,89.703,-0.58804,0.2928,-0.0012368,0.82,0.74,0
0.12597,0.0036603,0.15277,-0.78217,-0.48875,-0.45766,0.0012703,0,0,-0.84373,-0.080834,0,0.0066058,0,0,0.58085,-0.0061027,0,0.58088,-0.48874,-0.78218,-0.45766,89.752,-0.57619,0.31015,-0.0014804,0.84,0.74,0
0.10866,0.0036325,0.12949,-0.78195,-0.47087,-0.44059,0.0011146,0,0,-0.88753,-0.078711,0,0.005796,0,0,0.58283,-0.0055054,0,0.58286,-0.47086,-0.78195,-0.44059,89.795,-0.56447,0.32728,-0.0017486,0.86,0.74,0
0.090473,0.0036091,0.10614,-0.78164,-0.45335,-0.42357,0.0009713,0,0,-0.93099,-0.077443,0,0.0050508,0,0,0.58491,-0.0048157,0,0.58493,-0.45335,-0.78164,-0.42357,89.831,-0.55285,0.34415,-0.0020407,0.88,0.74,0
0.07142,0.0035946,0.082702,-0.78121,-0.43618,-0.40657,0.00085326,0,0,-0.97407,-0.076991,0,0.004437,0,0,0.58696,-0.0040126,0,0.58697,-0.43618,-0.78121,-0.40657,89.858,-0.54132,0.36075,-0.0023566,0.9,0.74,0
0.05151,0.0035944,0.059183,-0.78066,-0.41926,-0.38957,0.00077103,0,0,-1.0168,-0.077201,0,0.0040094,0,0,0.58882,-0.0030837,0,0.58883,-0.41926,-0.78067,-0.38957,89.878,-0.52983,0.37713,-0.0026973,0.92,0.74,0
0.030746,0.0036139,0.035596,-0.78042,-0.43675,-0.39185,0.00065257,0,0,-0.76468,-0.077834,0,0.002489,0,0,0.59066,-0.0030456,0,0.59067,-0.43675,-0.78042,-0.39185,89.89,-0.53634,0.36848,-0.0024473,0.94,0.74,0
0.020922,0.0036062,0.023763,-0.78014,-0.45447,-0.39415,0.00041221,0,0,-0.50179,-0.078418,0,0.0010717,0,0,0.5926,-0.0028487,0,0.59261,-0.45447,-0.78014,-0.39415,89.927,-0.54292,0.35965,-0.0021644,0.96,0.74,0
0.010675,0.0035991,0.011892,-0.77942,-0.43783,-0.37707,0.00018357,0,0,-0.52306,-0.078994,0,0.00047727,0,0,0.59408,-0.0014702,0,0.59408,-0.43783,-0.77942,-0.37707,89.969,-0.53144,0.37567,-0.0024846,0.98,0.74,0
0,0.0035965,0,-0.76419,-0.41456,-0.35363,-4.9743e-05,0,0,-0.53373,-0.07922,0,-0.00012933,0,0,0.59459,8.6736e-19,0,0.59459,-0.41456,-0.76419,-0.35363,-89.992,-0.51079,0.38374,-0.0026572,1,0.74,0
0,-0.011792,1,-0.91396,-2.0118,-1.8777,-0.0086088,0,0,1.2529,-0.17427,0,-0.022383,0,0,0.58683,-1.0998e-15,0,0.58675,-0.9139,-2.0118,-1.8777,-0.44926,-1.6012,1.0374,0.054124,0,0.76,0
0.025058,-0.01224,0.98826,-0.89266,-2.0001,-1.8561,-0.027968,0,0,1.2525,-0.18719,0,-0.072716,0,0,0.58086,0.021729,0,0.58124,-0.89196,-2.0008,-1.8561,-1.4458,-1.5829,1.044,0.05468,0.02,0.76,0
0.050098,-0.013456,0.97677,-0.87512,-2.0141,-1.8435,-0.048222,0,0,1.2589,-0.22174,0,-0.12538,0,0,0.56398,0.039312,0,0.56544,-0.87308,-2.0162,-1.8435,-2.42,-1.5776,1.0673,0.056972,0.04,0.76,0
0.075415,-0.015048,0.9657,-0.83863,-1.6126,-1.4596,-0.055857,0,0,0.98168,-0.26507,0,-0.21667,0,0,0.54299,0.036363,0,0.54445,-0.83327,-1.6179,-1.4596,-5.5103,-1.3036,0.71957,0.030368,0.06,0.76,0
0.089365,-0.019404,0.94439,-0.8065,-1.2209,-1.0804,-0.050379,0,0,0.71215,-0.3652,0,-0.26197,0,0,0.52587,0.024695,0,0.52651,-0.80046,-1.2269,-1.0804,-6.8334,-1.0359,0.37528,0.0013869,0.08,0.76,0
0.1039,-0.022919,0.92363,-0.78763,-1.2348,-1.0685,-0.039176,0,0,0.73036,-0.4322,0,-0.20371,0,0,0.51278,0.020452,0,0.51322,-0.78422,-1.2382,-1.0685,-4.9695,-1.0303,0.39729,0.0013558,0.1,0.76,0
0.11858,-0.025421,0.90336,-0.77433,-1.2364,-1.0549,-0.027735,0,0,0.72948,-0.47186,0,-0.14422,0,0,0.50212,0.013653,0,0.50232,-0.77267,-1.238,-1.0549,-3.4228,-1.0219,0.40606,0.0012336,0.12,0.76,0
0.13308,-0.027039,0.88346,-0.76534,-1.2303,-1.0404,-0.018468,0,0,0.71523,-0.49369,0,-0.096033,0,0,0.49431,0.0064591,0,0.49435,-0.76461,-1.231,-1.0404,-2.2709,-1.012,0.40618,0.0010671,0.14,0.76,0
0.14719,-0.027946,0.86382,-0.75929,-1.2196,-1.0256,-0.0111,0,0,0.69238,-0.50454,0,-0.057719,0,0,0.48895,-0.00044811,0,0.48895,-0.75902,-1.2199,-1.0256,-1.3804,-1.0015,0.40077,0.00088431,0.16,0.76,0
0.16078,-0.02828,0.84435,-0.75499,-1.2055,-1.0103,-0.0049159,0,0,0.66386,-0.50747,0,-0.025562,0,0,0.48555,-0.0070062,0,0.4856,-0.75494,-1.2056,-1.0103,-0.6251,-0.99027,0.39141,0.00070435,0.18,0.76,0
0.17374,-0.028119,0.82498,-0.75203,-1.1886,-0.99468,0.00077299,0,0,0.63089,-0.50421,0,0.0040196,0,0,0.48382,-0.013367,0,0.484,-0.75203,-1.1886,-0.99468,0.10145,-0.97844,0.37887,0.00053585,0.2,0.76,0
0.18601,-0.027496,0.80564,-0.75024,-1.1693,-0.97868,0.0065264,0,0,0.59393,-0.49557,0,0.033937,0,0,0.48366,-0.019751,0,0.48405,-0.75014,-1.1694,-0.97868,0.89208,-0.96607,0.36357,0.00038387,0.22,0.76,0
0.1975,-0.026402,0.78628,-0.7497,-1.1476,-0.96232,0.01286,0,0,0.55281,-0.48163,0,0.06687,0,0,0.48517,-0.026385,0,0.48588,-0.74928,-1.148,-0.96232,1.8493,-0.9532,0.34555,0.00025132,0.24,0.76,0
0.20812,-0.024794,0.76683,-0.75069,-1.1231,-0.94556,0.020318,0,0,0.50666,-0.46168,0,0.10566,0,0,0.48866,-0.033447,0,0.48979,-0.74958,-1.1242,-0.94556,3.1135,-0.93979,0.32457,0.00014029,0.26,0.76,0
0.21777,-0.022581,0.74719,-0.75411,-1.0953,-0.92843,0.029394,0,0,0.45322,-0.43394,0,0.15285,0,0,0.49465,-0.040923,0,0.49635,-0.7516,-1.0978,-0.92843,4.8878,-0.92595,0.29988,5.1368e-05,0.28,0.76,0
0.22625,-0.019649,0.72726,-0.76086,-1.0619,-0.91046,0.040223,0,0,0.38898,-0.3938,0,0.20916,0,0,0.50359,-0.048225,0,0.50591,-0.75558,-1.0672,-0.91046,7.48,-0.91108,0.26988,-1.0416e-05,0.3,0.76,0
0.23333,-0.015912,0.70691,-0.77193,-1.0199,-0.89102,0.050963,0,0,0.30962,-0.33522,0,0.26501,0,0,0.51516,-0.053417,0,0.51797,-0.76187,-1.03,-0.89102,11.171,-0.8943,0.23227,-4.0907e-05,0.32,0.76,0
0.23864,-0.01149,0.68604,-0.79397,-1.2845,-1.1381,0.058523,0,0,0.5137,-0.25374,0,0.22582,0,0,0.53105,-0.082105,0,0.53807,-0.78417,-1.2942,-1.1381,9.5898,-1.0722,0.45542,0.0068717,0.34,0.76,0
0.25387,-0.009821,0.67523,-0.81782,-1.5457,-1.3843,0.059535,0,0,0.73641,-0.20985,0,0.15479,0,0,0.55159,-0.10407,0,0.56143,-0.81299,-1.5506,-1.3843,4.6451,-1.2493,0.67009,0.012305,0.36,0.76,0
0.26809,-0.0082079,0.66398,-0.83044,-1.4908,-1.3604,0.052499,0,0,0.6889,-0.16961,0,0.1365,0,0,0.57035,-0.093345,0,0.57796,-0.82629,-1.495,-1.3604,4.517,-1.2272,0.61258,0.0099112,0.38,0.76,0
0.28143,-0.0069386,0.65242,-0.83834,-1.4461,-1.3378,0.03932,0,0,0.64924,-0.14088,0,0.10223,0,0,0.58275,-0.081775,0,0.58846,-0.83581,-1.4487,-1.3378,3.6862,-1.2074,0.56561,0.0081025,0.4,0.76,0
0.29406,-0.0061897,0.64067,-0.83212,-1.1455,-1.0738,0.026387,0,0,0.31249,-0.12427,0,0.098026,0,0,0.58934,-0.054719,0,0.59215,-0.82666,-1.1509,-1.0738,12.734,-1.0171,0.30172,0.003657,0.42,0.76,0
0.29393,-0.0046548,0.61702,-0.8238,-0.85986,-0.81361,0.018791,0,0,-0.026498,-0.12025,0,0.097715,0,0,0.59145,-0.030125,0,0.59222,-0.81578,-0.86787,-0.81361,23.093,-0.83242,0.053206,-7.6922e-06,0.44,0.76,0
0.293,-0.0034356,0.59335,-0.82011,-0.84144,-0.79514,0.014525,0,0,-0.064917,-0.12037,0,0.075532,0,0,0.59115,-0.025239,0,0.59169,-0.81276,-0.8488,-0.79514,26.857,-0.8189,0.04737,-3.0248e-06,0.46,0.76,0
0.29133,-0.0024583,0.56973,-0.81585,-0.82378,-0.77675,0.011406,0,0,-0.10165,-0.12228,0,0.059314,0,0,0.58978,-0.021545,0,0.59017,-0.80774,-0.8319,-0.77675,35.413,-0.80546,0.047875,1.1985e-06,0.48,0.76,0
0.28894,-0.0016653,0.54617,-0.81151,-0.80635,-0.75845,0.0091097,0,0,-0.13798,-0.12455,0,0.04737,0,0,0.58784,-0.018769,0,0.58814,-0.79946,-0.8184,-0.75845,52.912,-0.7921,0.053084,4.5172e-06,0.5,0.76,0
0.28581,-0.001015,0.5227,-0.80736,-0.78883,-0.74021,0.0073824,0,0,-0.1746,-0.12642,0,0.038388,0,0,0.58568,-0.016676,0,0.58592,-0.78625,-0.80994,-0.74021,70.727,-0.7788,0.061418,6.2077e-06,0.52,0.76,0
0.28195,-0.00047793,0.49932,-0.80353,-0.77108,-0.72204,0.0060518,0,0,-0.21188,-0.1275,0,0.031469,0,0,0.58352,-0.015079,0,0.58371,-0.76999,-0.80463,-0.72204,79.774,-0.76555,0.071828,5.2288e-06,0.54,0.76,0
0.27734,-3.2655e-05,0.47602,-0.80008,-0.75304,-0.70395,0.005007,0,0,-0.24995,-0.12765,0,0.026036,0,0,0.58149,-0.013837,0,0.58165,-0.75252,-0.80061,-0.70395,83.991,-0.75236,0.083711,2.5818e-07,0.56,0.76,0
0.27196,0.00033691,0.4528,-0.79701,-0.73472,-0.68592,0.0041795,0,0,-0.28884,-0.12689,0,0.021734,0,0,0.57968,-0.012847,0,0.57982,-0.73444,-0.79729,-0.68592,86.178,-0.73922,0.096714,-1.0243e-05,0.58,0.76,0
0.26579,0.00064362,0.42964,-0.79431,-0.71615,-0.66796,0.0035274,0,0,-0.3285,-0.1253,0,0.018342,0,0,0.57813,-0.012039,0,0.57826,-0.71599,-0.79447,-0.66796,87.421,-0.72614,0.11061,-2.7969e-05,0.6,0.76,0
0.25882,0.00089826,0.40655,-0.79195,-0.69737,-0.65007,0.003023,0,0,-0.36889,-0.12297,0,0.01572,0,0,0.57686,-0.011366,0,0.57697,-0.69727,-0.79205,-0.65007,88.171,-0.71313,0.12524,-5.4722e-05,0.62,0.76,0
0.25103,0.0011101,0.3835,-0.78991,-0.67841,-0.63225,0.0026462,0,0,-0.40994,-0.12004,0,0.01376,0,0,0.57586,-0.010799,0,0.57596,-0.67835,-0.78998,-0.63225,88.641,-0.70019,0.14047,-9.2381e-05,0.64,0.76,0
0.24242,0.0012872,0.36048,-0.78817,-0.65933,-0.61449,0.0023797,0,0,-0.45157,-0.11659,0,0.012374,0,0,0.57513,-0.010318,0,0.57523,-0.65929,-0.78822,-0.61449,88.942,-0.68733,0.15622,-0.00014289,0.66,0.76,0
0.23297,0.0014364,0.33749,-0.78671,-0.64016,-0.59681,0.0022068,0,0,-0.49376,-0.11273,0,0.011475,0,0,0.57468,-0.0099105,0,0.57476,-0.64013,-0.78675,-0.59681,89.138,-0.67456,0.17241,-0.00020823,0.68,0.76,0
0.22267,0.0015636,0.3145,-0.78551,-0.62094,-0.57919,0.0021098,0,0,-0.53644,-0.10856,0,0.010971,0,0,0.57449,-0.0095695,0,0.57457,-0.62092,-0.78554,-0.57919,89.266,-0.66188,0.18897,-0.00029044,0.7,0.76,0
0.21151,0.0016731,0.29153,-0.78456,-0.60171,-0.56164,0.0020694,0,0,-0.57959,-0.10416,0,0.010761,0,0,0.57458,-0.0092877,0,0.57465,-0.60168,-0.78458,-0.56164,89.352,-0.6493,0.20586,-0.00039155,0.72,0.76,0
0.19948,0.0017683,0.26854,-0.78384,-0.58249,-0.54417,0.0020641,0,0,-0.62314,-0.09964,0,0.010733,0,0,0.57495,-0.0090577,0,0.57502,-0.58247,-0.78386,-0.54417,89.413,-0.63683,0.22302,-0.00051354,0.74,0.76,0
0.18658,0.0018509,0.24553,-0.78333,-0.56334,-0.52677,0.0020704,0,0,-0.66706,-0.095098,0,0.010766,0,0,0.57561,-0.0088691,0,0.57568,-0.56332,-0.78335,-0.52677,89.461,-0.62448,0.2404,-0.00065825,0.76,0.76,0
0.1728,0.0019217,0.22249,-0.783,-0.54431,-0.50944,0.0020633,0,0,-0.71126,-0.090674,0,0.010729,0,0,0.57657,-0.0087063,0,0.57664,-0.5443,-0.78302,-0.50944,89.505,-0.61225,0.25792,-0.00082724,0.78,0.76,0
0.15813,0.0019799,0.1994,-0.78281,-0.52546,-0.49218,0.0020186,0,0,-0.75563,-0.086527,0,0.010497,0,0,0.57785,-0.0085458,0,0.57792,-0.52545,-0.78283,-0.49218,89.551,-0.60015,0.27552,-0.0010216,0.8,0.76,0
0.14258,0.0020245,0.17626,-0.78271,-0.50686,-0.475,0.0019171,0,0,-0.80004,-0.082836,0,0.0099687,0,0,0.57944,-0.0083532,0,0.5795,-0.50685,-0.78272,-0.475,89.602,-0.58819,0.2931,-0.0012419,0.82,0.76,0
0.12613,0.0020542,0.15305,-0.78263,-0.48858,-0.45789,0.0017492,0,0,-0.84434,-0.079793,0,0.0090957,0,0,0.58132,-0.0080815,0,0.58137,-0.48857,-0.78265,-0.45789,89.659,-0.57637,0.31056,-0.0014878,0.84,0.76,0
0.1088,0.0020689,0.12976,-0.78252,-0.47066,-0.44083,0.0015212,0,0,-0.88838,-0.07756,0,0.0079103,0,0,0.58342,-0.0076718,0,0.58347,-0.47066,-0.78253,-0.44083,89.721,-0.56467,0.3278,-0.0017587,0.86,0.76,0
0.090596,0.0020706,0.10637,-0.78231,-0.45315,-0.42382,0.0012572,0,0,-0.93206,-0.076235,0,0.0065377,0,0,0.58566,-0.0070583,0,0.58571,-0.45314,-0.78231,-0.42382,89.781,-0.55309,0.34477,-0.0020535,0.88,0.76,0
0.07152,0.0020646,0.082903,-0.78197,-0.436,-0.40684,0.00099528,0,0,-0.97533,-0.075803,0,0.0051755,0,0,0.58791,-0.0061786,0,0.58795,-0.43599,-0.78197,-0.40684,89.835,-0.5416,0.36144,-0.0023719,0.9,0.76,0
0.051583,0.0020592,0.059342,-0.78148,-0.41913,-0.38985,0.00077509,0,0,-1.0182,-0.07611,0,0.0040305,0,0,0.58999,-0.0049883,0,0.59001,-0.41912,-0.78148,-0.38985,89.877,-0.53015,0.37784,-0.0027145,0.92,0.76,0
0.030791,0.0020649,0.035704,-0.78124,-0.43644,-0.39208,0.00052403,0,0,-0.7658,-0.076887,0,0.0020377,0,0,0.59207,-0.0052168,0,0.5921,-0.43644,-0.78124,-0.39208,89.912,-0.53658,0.36927,-0.0024668,0.94,0.76,0
0.020951,0.002044,0.02384,-0.78097,-0.45417,-0.39438,0.00019137,0,0,-0.50256,-0.077726,0,0.00049757,0,0,0.5943,-0.0050215,0,0.59432,-0.45417,-0.78097,-0.39438,89.966,-0.54317,0.36043,-0.0021835,0.96,0.76,0
0.010689,0.0020241,0.011932,-0.78023,-0.43774,-0.37732,1.6438e-05,0,0,-0.52378,-0.078543,0,4.2738e-05,0,0,0.59601,-0.002636,0,0.59601,-0.43774,-0.78023,-0.37732,89.997,-0.53176,0.37635,-0.0025016,0.98,0.76,0
0,0.0020165,0,-0.76493,-0.41449,-0.35383,-0.00014666,0,0,-0.53444,-0.078864,0,-0.00038131,0,0,0.5966,1.5179e-17,0,0.5966,-0.41449,-0.76493,-0.35383,-89.976,-0.51109,0.38438,-0.0026735,1,0.76,0
0,-0.014907,1,-0.94146,-1.9773,-1.8756,-0.014612,0,0,1.2144,-0.13216,0,-0.037992,0,0,0.61481,5.4817e-16,0,0.61465,-0.94126,-1.9775,-1.8756,-0.80806,-1.5981,0.98924,0.047947,0,0.78,0
0.024288,-0.015667,0.9877,-0.91237,-1.9608,-1.8497,-0.042403,0,0,1.2185,-0.14446,0,-0.11025,0,0,0.60633,0.034534,0,0.60717,-0.91066,-1.9625,-1.8497,-2.3123,-1.5743,1.0002,0.049191,0.02,0.78,0
0.048738,-0.01771,0.97575,-0.88877,-1.9902,-1.8395,-0.078285,0,0,1.2359,-0.19601,0,-0.20354,0,0,0.58164,0.06984,0,0.58601,-0.88323,-1.9958,-1.8395,-4.0452,-1.5728,1.0432,0.053919,0.04,0.78,0
0.073723,-0.020346,0.96444,-0.84788,-1.6198,-1.4636,-0.086532,0,0,0.9763,-0.27064,0,-0.33299,0,0,0.54943,0.064886,0,0.55387,-0.83564,-1.632,-1.4636,-8.1676,-1.3104,0.72796,0.029855,0.06,0.78,0
0.08779,-0.026943,0.9431,-0.80801,-1.2397,-1.0859,-0.073915,0,0,0.72243,-0.40001,0,-0.38436,0,0,0.52338,0.043882,0,0.52534,-0.79571,-1.252,-1.0859,-9.4514,-1.0445,0.40002,0.0014797,0.08,0.78,0
0.10262,-0.031824,0.92257,-0.7863,-1.2521,-1.0728,-0.053248,0,0,0.74491,-0.46615,0,-0.27689,0,0,0.50575,0.033514,0,0.50688,-0.78029,-1.2581,-1.0728,-6.4393,-1.0371,0.41725,0.0014064,0.1,0.78,0
0.11759,-0.035069,0.90264,-0.77243,-1.248,-1.0574,-0.03666,0,0,0.74102,-0.49535,0,-0.19063,0,0,0.49357,0.02233,0,0.49407,-0.76962,-1.2508,-1.0574,-4.3826,-1.0259,0.41935,0.0012585,0.12,0.78,0
0.13226,-0.037065,0.88308,-0.76474,-1.2392,-1.0427,-0.024515,0,0,0.72278,-0.51088,0,-0.12748,0,0,0.48606,0.012304,0,0.48621,-0.76347,-1.2405,-1.0427,-2.9498,-1.0156,0.41511,0.001068,0.14,0.78,0
0.1465,-0.038157,0.86376,-0.75902,-1.2267,-1.0276,-0.015432,0,0,0.69831,-0.51774,0,-0.080245,0,0,0.48128,0.0034127,0,0.48128,-0.75852,-1.2272,-1.0276,-1.8877,-1.0045,0.40741,0.00087951,0.16,0.78,0
0.16019,-0.038532,0.84458,-0.75476,-1.2117,-1.0122,-0.0079945,0,0,0.66941,-0.5186,0,-0.041571,0,0,0.47829,-0.0046902,0,0.47831,-0.75462,-1.2118,-1.0122,-1.0021,-0.99289,0.39701,0.0006993,0.18,0.78,0
0.17327,-0.038301,0.82549,-0.75156,-1.1946,-0.99658,-0.0012943,0,0,0.63705,-0.51473,0,-0.0067306,0,0,0.47669,-0.012407,0,0.47684,-0.75155,-1.1946,-0.99658,-0.16741,-0.98089,0.38437,0.00053284,0.2,0.78,0
0.18568,-0.037511,0.80644,-0.7493,-1.1756,-0.98069,0.0054278,0,0,0.6016,-0.50673,0,0.028225,0,0,0.47634,-0.020143,0,0.47676,-0.74923,-1.1757,-0.98069,0.72939,-0.96853,0.36974,0.00038305,0.22,0.78,0
0.19734,-0.036155,0.78739,-0.74806,-1.1548,-0.96456,0.012887,0,0,0.5629,-0.4947,0,0.06701,0,0,0.47737,-0.028318,0,0.4782,-0.74765,-1.1552,-0.96456,1.8127,-0.95581,0.35322,0.00025168,0.24,0.78,0
0.20819,-0.034175,0.76826,-0.74815,-1.1321,-0.9482,0.021849,0,0,0.52012,-0.4781,0,0.11361,0,0,0.48017,-0.037365,0,0.48161,-0.74691,-1.1333,-0.9482,3.2466,-0.94281,0.33474,0.00013942,0.26,0.78,0
0.21814,-0.03145,0.74897,-0.75011,-1.1066,-0.93149,0.033407,0,0,0.47159,-0.45523,0,0.17372,0,0,0.48567,-0.047692,0,0.48799,-0.74701,-1.1097,-0.93149,5.308,-0.92939,0.31411,4.7836e-05,0.28,0.78,0
0.22706,-0.027747,0.7294,-0.75735,-1.0778,-0.91524,0.048476,0,0,0.41052,-0.42262,0,0.25207,0,0,0.49575,-0.059407,0,0.49931,-0.75018,-1.085,-0.91524,8.4168,-0.9168,0.28994,-3.0152e-05,0.3,0.78,0
0.23456,-0.022819,0.70931,-0.77032,-1.0364,-0.89666,0.066729,0,0,0.32848,-0.36321,0,0.34699,0,0,0.51112,-0.070649,0,0.51608,-0.75452,-1.0521,-0.89666,13.32,-0.90111,0.25784,-6.8357e-05,0.32,0.78,0
0.24019,-0.016597,0.68851,-0.79839,-1.2948,-1.1443,0.079595,0,0,0.52012,-0.26079,0,0.30558,0,0,0.5342,-0.10798,0,0.54619,-0.78167,-1.3115,-1.1443,12.008,-1.0792,0.47183,0.0069471,0.34,0.78,0
0.25537,-0.013933,0.67754,-0.82512,-1.5361,-1.3859,0.081402,0,0,0.72903,-0.19527,0,0.21164,0,0,0.56276,-0.13221,0,0.57826,-0.81592,-1.5453,-1.3859,6.4486,-1.2491,0.66421,0.012177,0.36,0.78,0
0.26936,-0.011429,0.666,-0.83988,-1.4691,-1.3587,0.063366,0,0,0.67447,-0.14355,0,0.16475,0,0,0.58517,-0.10677,0,0.59478,-0.83356,-1.4754,-1.3587,5.6936,-1.2226,0.5922,0.0092851,0.38,0.78,0
0.28235,-0.0095607,0.65414,-0.84997,-1.429,-1.3378,0.041856,0,0,0.6342,-0.1185,0,0.10883,0,0,0.59569,-0.087624,0,0.60206,-0.84696,-1.432,-1.3378,4.1134,-1.2056,0.54409,0.007444,0.4,0.78,0
0.29472,-0.0084895,0.64217,-0.8392,-1.1333,-1.0734,0.024095,0,0,0.29946,-0.10389,0,0.087662,0,0,0.5984,-0.056271,0,0.60132,-0.83397,-1.1386,-1.0734,13.986,-1.0153,0.28631,0.0033727,0.42,0.78,0
0.29433,-0.0069223,0.61823,-0.82854,-0.85494,-0.81416,0.01486,0,0,-0.037396,-0.10603,0,0.077273,0,0,0.59791,-0.029295,0,0.59862,-0.82186,-0.86161,-0.81416,24.195,-0.83254,0.044111,-3.9586e-06,0.44,0.78,0
0.29323,-0.0057431,0.59434,-0.82319,-0.83805,-0.79554,0.010175,0,0,-0.07188,-0.11052,0,0.052909,0,0,0.59593,-0.023343,0,0.59639,-0.81802,-0.84322,-0.79554,26.929,-0.81893,0.041311,-3.5722e-07,0.46,0.78,0
0.29145,-0.0048302,0.57055,-0.81784,-0.82144,-0.77706,0.0071058,0,0,-0.10602,-0.1154,0,0.03695,0,0,0.59327,-0.019116,0,0.59358,-0.81231,-0.82697,-0.77706,37.883,-0.80545,0.044434,2.9074e-06,0.48,0.78,0
0.28899,-0.0041008,0.54688,-0.8128,-0.8047,-0.75869,0.0050993,0,0,-0.14068,-0.11964,0,0.026516,0,0,0.59037,-0.016166,0,0.5906,-0.80224,-0.81526,-0.75869,64.218,-0.79206,0.051315,5.4628e-06,0.5,0.78,0
0.28582,-0.0035002,0.52332,-0.80819,-0.78764,-0.74041,0.0037728,0,0,-0.17624,-0.12279,0,0.019618,0,0,0.58751,-0.014131,0,0.58769,-0.78697,-0.80886,-0.74041,79.922,-0.77875,0.060551,6.5799e-06,0.52,0.78,0
0.28194,-0.0029934,0.49988,-0.80407,-0.77019,-0.72222,0.0028763,0,0,-0.21282,-0.12472,0,0.014957,0,0,0.58486,-0.012731,0,0.585,-0.76994,-0.80431,-0.72222,85.182,-0.76549,0.071411,5.1874e-06,0.54,0.78,0
0.27731,-0.0025576,0.47653,-0.80042,-0.75236,-0.7041,0.0022577,0,0,-0.25042,-0.12548,0,0.01174,0,0,0.58249,-0.011757,0,0.58261,-0.75226,-0.80052,-0.7041,87.316,-0.75229,0.083504,-5.8617e-08,0.56,0.78,0
0.27192,-0.0021779,0.45328,-0.7972,-0.73421,-0.68606,0.0018293,0,0,-0.28897,-0.12518,0,0.0095124,0,0,0.58045,-0.011065,0,0.58055,-0.73416,-0.79726,-0.68606,88.338,-0.73916,0.096589,-1.0701e-05,0.58,0.78,0
0.26575,-0.0018435,0.4301,-0.79439,-0.71577,-0.6681,0.0015433,0,0,-0.32836,-0.12395,0,0.008025,0,0,0.57873,-0.01056,0,0.57883,-0.71574,-0.79442,-0.6681,88.876,-0.72609,0.11049,-2.8424e-05,0.6,0.78,0
0.25879,-0.0015459,0.40698,-0.79194,-0.69711,-0.6502,0.0013734,0,0,-0.36852,-0.12195,0,0.0071419,0,0,0.57734,-0.010183,0,0.57743,-0.69709,-0.79196,-0.6502,89.17,-0.71308,0.12509,-5.5013e-05,0.62,0.78,0
0.25101,-0.0012784,0.38391,-0.78982,-0.67826,-0.63238,0.0013045,0,0,-0.40935,-0.11929,0,0.0067834,0,0,0.57625,-0.0099001,0,0.57633,-0.67824,-0.78984,-0.63238,89.33,-0.70015,0.14027,-9.2337e-05,0.64,0.78,0
0.24241,-0.0010351,0.36088,-0.78801,-0.65927,-0.61462,0.0013251,0,0,-0.4508,-0.11608,0,0.0068908,0,0,0.57544,-0.0096937,0,0.57553,-0.65926,-0.78802,-0.61462,89.41,-0.6873,0.15595,-0.00014233,0.66,0.78,0
0.23298,-0.00081095,0.33788,-0.78648,-0.64018,-0.59694,0.0014241,0,0,-0.49282,-0.11244,0,0.0074052,0,0,0.57492,-0.009556,0,0.575,-0.64017,-0.7865,-0.59694,89.442,-0.67453,0.17207,-0.00020701,0.68,0.78,0
0.2227,-0.00060212,0.31489,-0.78523,-0.62103,-0.57932,0.0015876,0,0,-0.53537,-0.10843,0,0.0082554,0,0,0.57467,-0.0094846,0,0.57475,-0.62101,-0.78525,-0.57932,89.446,-0.66186,0.18857,-0.00028845,0.7,0.78,0
0.21156,-0.00040586,0.2919,-0.78424,-0.60183,-0.56177,0.0017977,0,0,-0.57842,-0.10415,0,0.0093481,0,0,0.57469,-0.0094795,0,0.57477,-0.60181,-0.78426,-0.56177,89.435,-0.64928,0.20541,-0.00038876,0.72,0.78,0
0.19956,-0.00022085,0.26891,-0.78351,-0.58264,-0.5443,0.0020311,0,0,-0.62194,-0.099678,0,0.010562,0,0,0.57501,-0.009539,0,0.57509,-0.58262,-0.78353,-0.5443,89.421,-0.63682,0.22256,-0.00051007,0.74,0.78,0
0.18669,-4.7364e-05,0.2459,-0.78302,-0.56348,-0.5269,0.0022582,0,0,-0.6659,-0.095111,0,0.011743,0,0,0.57563,-0.0096574,0,0.57571,-0.56346,-0.78304,-0.5269,89.411,-0.62447,0.23996,-0.00065444,0.76,0.78,0
0.17293,0.00011258,0.22286,-0.78274,-0.54441,-0.50958,0.0024438,0,0,-0.71023,-0.09057,0,0.012708,0,0,0.57658,-0.0098203,0,0.57666,-0.54439,-0.78277,-0.50958,89.413,-0.61224,0.25756,-0.00082371,0.78,0.78,0
0.15828,0.00025526,0.19978,-0.78265,-0.52549,-0.49233,0.0025494,0,0,-0.75484,-0.086209,0,0.013257,0,0,0.57787,-0.0099997,0,0.57796,-0.52546,-0.78268,-0.49233,89.432,-0.60016,0.27528,-0.0010193,0.8,0.78,0
0.14273,0.0003757,0.17663,-0.7827,-0.50678,-0.47516,0.0025392,0,0,-0.7996,-0.08222,0,0.013204,0,0,0.57953,-0.010148,0,0.57962,-0.50676,-0.78272,-0.47516,89.473,-0.58822,0.29304,-0.0012419,0.82,0.78,0
0.12629,0.0004686,0.15341,-0.78281,-0.48838,-0.45806,0.0023898,0,0,-0.84434,-0.078826,0,0.012427,0,0,0.58153,-0.010195,0,0.58162,-0.48836,-0.78283,-0.45806,89.535,-0.57642,0.31073,-0.0014916,0.84,0.78,0
0.10896,0.00053007,0.13011,-0.78291,-0.47036,-0.44104,0.0021019,0,0,-0.88887,-0.076252,0,0.01093,0,0,0.58386,-0.010042,0,0.58394,-0.47035,-0.78292,-0.44104,89.615,-0.56477,0.32821,-0.0017672,0.86,0.78,0
0.090738,0.00055966,0.1067,-0.78292,-0.45278,-0.42406,0.0017088,0,0,-0.93302,-0.074673,0,0.0088858,0,0,0.5864,-0.009573,0,0.58648,-0.45277,-0.78293,-0.42406,89.703,-0.55325,0.34541,-0.0020672,0.88,0.78,0
0.071639,0.00056251,0.083196,-0.78277,-0.43563,-0.40712,0.0012739,0,0,-0.97669,-0.074134,0,0.0066245,0,0,0.58903,-0.008667,0,0.58909,-0.43563,-0.78277,-0.40712,89.79,-0.54184,0.36224,-0.0023904,0.9,0.78,0
0.051671,0.00055002,0.059582,-0.78243,-0.41882,-0.39017,0.0008724,0,0,-1.0199,-0.074503,0,0.0045365,0,0,0.59152,-0.0072299,0,0.59157,-0.41882,-0.78244,-0.39017,89.862,-0.53048,0.37876,-0.0027368,0.92,0.78,0
0.030843,0.00053843,0.035874,-0.78221,-0.43587,-0.39233,0.00042509,0,0,-0.76719,-0.075467,0,0.0017212,0,0,0.5941,-0.0078394,0,0.59416,-0.43587,-0.78221,-0.39233,89.93,-0.5368,0.37032,-0.0024932,0.94,0.78,0
0.020983,0.00049714,0.023964,-0.782,-0.45381,-0.39471,-6.9199e-05,0,0,-0.50348,-0.076833,0,-0.00017992,0,0,0.59692,-0.0076771,0,0.59697,-0.45381,-0.782,-0.39471,-89.988,-0.5435,0.36138,-0.002207,0.96,0.78,0
0.010704,0.00045741,0.011997,-0.78124,-0.43783,-0.37772,-0.00019698,0,0,-0.52457,-0.078149,0,-0.00051215,0,0,0.5991,-0.0040706,0,0.59911,-0.43783,-0.78124,-0.37772,-89.967,-0.53226,0.37707,-0.0025193,0.98,0.78,0
0,0.00044198,0,-0.76584,-0.41466,-0.35415,-0.00029669,0,0,-0.53519,-0.078666,0,-0.00077139,0,0,0.59987,1.236e-17,0,0.59986,-0.41466,-0.76584,-0.35415,-89.952,-0.51155,0.38501,-0.0026888,1,0.78,0
0,-0.017079,1,-0.96961,-1.9356,-1.8716,-0.018069,0,0,1.1725,-0.083284,0,-0.046979,0,0,0.65589,6.5919e-17,0,0.65563,-0.96927,-1.936,-1.8716,-1.0712,-1.5923,0.93617,0.041467,0,0.8,0
0.023451,-0.018018,0.98688,-0.95054,-1.9178,-1.8474,-0.053986,0,0,1.1659,-0.091535,0,-0.14036,0,0,0.6507,0.045266,0,0.65196,-0.94754,-1.9208,-1.8474,-3.1847,-1.5719,0.93871,0.041608,0.02,0.8,0
0.046636,-0.021296,0.97397,-0.8958,-1.9127,-1.8165,-0.11017,0,0,1.1969,-0.12503,0,-0.28644,0,0,0.61596,0.10013,0,0.62328,-0.88401,-1.9245,-1.8165,-6.1129,-1.5417,0.99093,0.04798,0.04,0.8,0
0.071328,-0.025873,0.96224,-0.86273,-1.6435,-1.4736,-0.14079,0,0,0.97083,-0.29459,0,-0.52935,0,0,0.56029,0.13707,0,0.57984,-0.8339,-1.6724,-1.4736,-11.99,-1.3266,0.76018,0.030683,0.06,0.8,0
0.085469,-0.035404,0.94088,-0.81551,-1.2842,-1.1003,-0.1006,0,0,0.74058,-0.478,0,-0.52312,0,0,0.51613,0.067804,0,0.52058,-0.79483,-1.3049,-1.1003,-11.617,-1.0667,0.44459,0.0015114,0.08,0.8,0
0.10095,-0.041565,0.92095,-0.78109,-1.2725,-1.0765,-0.066648,0,0,0.76817,-0.50938,0,-0.34657,0,0,0.49123,0.045716,0,0.49331,-0.77221,-1.2813,-1.0765,-7.5888,-1.0434,0.44372,0.0014844,0.1,0.8,0
0.1162,-0.045235,0.90158,-0.77162,-1.2631,-1.0612,-0.044291,0,0,0.75294,-0.52495,0,-0.23031,0,0,0.48091,0.029581,0,0.48179,-0.76766,-1.2671,-1.0612,-5.1084,-1.032,0.43472,0.0012594,0.12,0.8,0
0.13107,-0.047474,0.88248,-0.76424,-1.2499,-1.0455,-0.030065,0,0,0.73125,-0.53155,0,-0.15634,0,0,0.47539,0.016961,0,0.47567,-0.76239,-1.2518,-1.0455,-3.5288,-1.0199,0.42557,0.0010601,0.14,0.8,0
0.14545,-0.048656,0.86355,-0.75894,-1.2351,-1.03,-0.019553,0,0,0.70469,-0.53322,0,-0.10168,0,0,0.47196,0.0064816,0,0.47199,-0.75813,-1.2359,-1.03,-2.3477,-1.008,0.41503,0.00086783,0.16,0.8,0
0.15926,-0.049024,0.84472,-0.75472,-1.2188,-1.0144,-0.011182,0,0,0.67517,-0.5313,0,-0.058149,0,0,0.46973,-0.0027592,0,0.46973,-0.75445,-1.219,-1.0144,-1.3797,-0.99596,0.40328,0.00068894,0.18,0.8,0
0.17245,-0.048708,0.82597,-0.75126,-1.2012,-0.99874,-0.0037514,0,0,0.64343,-0.52653,0,-0.019507,0,0,0.46836,-0.011429,0,0.46849,-0.75123,-1.2013,-0.99874,-0.47761,-0.98375,0.3904,0.00052564,0.2,0.8,0
0.18499,-0.047765,0.80725,-0.74841,-1.1827,-0.98295,0.003657,0,0,0.60981,-0.51928,0,0.019016,0,0,0.46775,-0.020107,0,0.46816,-0.74838,-1.1827,-0.98295,0.48245,-0.97135,0.37654,0.00037925,0.22,0.8,0
0.19684,-0.04619,0.78855,-0.74622,-1.1631,-0.96708,0.011925,0,0,0.57422,-0.5097,0,0.06201,0,0,0.46794,-0.029382,0,0.46885,-0.74588,-1.1635,-0.96708,1.6371,-0.9588,0.36184,0.00024991,0.24,0.8,0
0.20796,-0.043918,0.76982,-0.74498,-1.1425,-0.95117,0.022124,0,0,0.53608,-0.49758,0,0.11504,0,0,0.46928,-0.039962,0,0.47096,-0.74376,-1.1438,-0.95117,3.1754,-0.94623,0.3465,0.00013689,0.26,0.8,0
0.21829,-0.04079,0.75101,-0.74564,-1.1209,-0.93546,0.035582,0,0,0.49354,-0.48212,0,0.18502,0,0,0.47261,-0.052814,0,0.47552,-0.7423,-1.1242,-0.93546,5.369,-0.934,0.33078,3.7014e-05,0.28,0.8,0
0.2277,-0.036554,0.73201,-0.7488,-1.0967,-0.91964,0.055812,0,0,0.44419,-0.46025,0,0.29023,0,0,0.48063,-0.069392,0,0.48556,-0.74007,-1.1054,-0.91964,8.8954,-0.9217,0.3164,-4.7624e-05,0.3,0.8,0
0.23606,-0.03044,0.71256,-0.7737,-1.0751,-0.91091,0.085169,0,0,0.35674,-0.42682,0,0.44288,0,0,0.50259,-0.092146,0,0.51096,-0.7513,-1.0975,-0.91091,14.738,-0.9199,0.3001,-0.00018651,0.32,0.8,0
0.24197,-0.021922,0.6918,-0.80688,-1.3171,-1.156,0.12258,0,0,0.52789,-0.27915,0,0.46019,0,0,0.54148,-0.17383,0,0.5721,-0.77329,-1.3507,-1.156,15.844,-1.0933,0.51155,0.0074741,0.34,0.8,0
0.25717,-0.017632,0.68052,-0.8286,-1.4814,-1.3735,0.10446,0,0,0.70842,-0.14028,0,0.27159,0,0,0.58879,-0.15539,0,0.60827,-0.81229,-1.4977,-1.3735,8.8724,-1.2279,0.63256,0.011329,0.36,0.8,0
0.27031,-0.01395,0.66825,-0.8684,-1.4445,-1.3621,0.068997,0,0,0.64181,-0.10704,0,0.17939,0,0,0.61493,-0.11288,0,0.62504,-0.86026,-1.4526,-1.3621,6.7358,-1.225,0.55268,0.0078927,0.38,0.8,0
0.28284,-0.011678,0.65592,-0.86414,-1.4082,-1.3376,0.038161,0,0,0.61552,-0.091715,0,0.099219,0,0,0.61449,-0.086883,0,0.62055,-0.86148,-1.4108,-1.3376,3.993,-1.2033,0.51665,0.0066059,0.4,0.8,0
0.29493,-0.010345,0.64367,-0.84659,-1.12,-1.0727,0.018596,0,0,0.28576,-0.081903,0,0.065434,0,0,0.61015,-0.05351,0,0.61273,-0.84267,-1.1239,-1.0727,14.883,-1.0131,0.26839,0.0030531,0.42,0.8,0
0.29428,-0.0088959,0.61936,-0.83276,-0.8498,-0.81445,0.0089785,0,0,-0.047596,-0.091918,0,0.046688,0,0,0.60562,-0.026236,0,0.60619,-0.8289,-0.85366,-0.81445,23.245,-0.83234,0.034346,-9.0882e-07,0.44,0.8,0
0.29303,-0.0078564,0.59522,-0.82562,-0.83486,-0.79575,0.0045743,0,0,-0.077639,-0.10169,0,0.023786,0,0,0.60133,-0.019751,0,0.60165,-0.82374,-0.83674,-0.79575,22.344,-0.81875,0.036279,1.4319e-06,0.46,0.8,0
0.29117,-0.0070742,0.57126,-0.81915,-0.81952,-0.77723,0.0020127,0,0,-0.10899,-0.10996,0,0.010466,0,0,0.59696,-0.015436,0,0.59716,-0.81732,-0.82136,-0.77723,42.355,-0.8053,0.042251,3.7545e-06,0.48,0.8,0
0.28867,-0.0064508,0.54746,-0.81342,-0.80356,-0.75882,0.00059736,0,0,-0.14194,-0.1163,0,0.0031063,0,0,0.59283,-0.012675,0,0.59297,-0.80352,-0.81345,-0.75882,86.546,-0.79193,0.050401,5.7243e-06,0.5,0.8,0
0.28549,-0.0059266,0.52383,-0.80839,-0.78695,-0.74052,-0.00014093,0,0,-0.17648,-0.12072,0,-0.00073283,0,0,0.58912,-0.010978,0,0.58922,-0.78695,-0.80839,-0.74052,-89.624,-0.77862,0.060095,6.5497e-06,0.52,0.8,0
0.28161,-0.0054669,0.50034,-0.80402,-0.76977,-0.7223,-0.00049273,0,0,-0.21246,-0.12341,0,-0.0025622,0,0,0.58589,-0.0099771,0,0.58598,-0.76976,-0.80402,-0.7223,-89.176,-0.76536,0.071079,5.0769e-06,0.54,0.8,0
0.27699,-0.0050519,0.47696,-0.80021,-0.75212,-0.70418,-0.00062393,0,0,-0.24968,-0.12464,0,-0.0032444,0,0,0.58315,-0.009411,0,0.58323,-0.75211,-0.80022,-0.70418,-89.257,-0.75217,0.083172,-9.3622e-08,0.56,0.8,0
0.27162,-0.0046702,0.45368,-0.79689,-0.73408,-0.68613,-0.00062148,0,0,-0.28796,-0.12467,0,-0.0032317,0,0,0.58088,-0.0091075,0,0.58095,-0.73408,-0.79689,-0.68613,-89.433,-0.73903,0.09621,-1.0523e-05,0.58,0.8,0
0.26548,-0.0043145,0.43049,-0.79399,-0.71574,-0.66816,-0.00052633,0,0,-0.32715,-0.1237,0,-0.0027369,0,0,0.57901,-0.0089606,0,0.57908,-0.71574,-0.79399,-0.66816,-89.615,-0.72596,0.11005,-2.7883e-05,0.6,0.8,0
0.25854,-0.0039796,0.40736,-0.79146,-0.69716,-0.65027,-0.00035509,0,0,-0.36711,-0.12192,0,-0.0018465,0,0,0.57752,-0.0089106,0,0.57759,-0.69716,-0.79147,-0.65027,-89.784,-0.71297,0.12456,-5.3931e-05,0.62,0.8,0
0.25079,-0.0036614,0.38429,-0.78927,-0.6784,-0.63244,-0.00011325,0,0,-0.40775,-0.11948,0,-0.00058889,0,0,0.57635,-0.0089282,0,0.57642,-0.6784,-0.78927,-0.63244,-89.942,-0.70004,0.13964,-9.0502e-05,0.64,0.8,0
0.24223,-0.0033562,0.36125,-0.78738,-0.65949,-0.61469,0.00019713,0,0,-0.449,-0.11648,0,0.0010251,0,0,0.57548,-0.0090029,0,0.57555,-0.65949,-0.78738,-0.61469,89.912,-0.68719,0.15522,-0.00013951,0.66,0.8,0
0.23283,-0.0030611,0.33825,-0.78578,-0.64047,-0.597,0.00057278,0,0,-0.49083,-0.11302,0,0.0029785,0,0,0.57489,-0.0091356,0,0.57496,-0.64046,-0.78578,-0.597,89.774,-0.67441,0.17124,-0.00020296,0.68,0.8,0
0.22259,-0.0027737,0.31526,-0.78446,-0.62137,-0.57938,0.0010062,0,0,-0.53321,-0.10917,0,0.0052324,0,0,0.57457,-0.0093332,0,0.57464,-0.62136,-0.78446,-0.57938,89.647,-0.66173,0.18765,-0.00028295,0.7,0.8,0
0.2115,-0.0024929,0.29228,-0.78341,-0.60221,-0.56183,0.0014835,0,0,-0.57611,-0.105,0,0.0077144,0,0,0.57452,-0.0096051,0,0.57461,-0.6022,-0.78342,-0.56183,89.531,-0.64915,0.20442,-0.00038169,0.72,0.8,0
0.19955,-0.0022188,0.2693,-0.78264,-0.58303,-0.54435,0.0019821,0,0,-0.61955,-0.10057,0,0.010307,0,0,0.57477,-0.0099588,0,0.57486,-0.58301,-0.78266,-0.54435,89.431,-0.63668,0.22152,-0.00050149,0.74,0.8,0
0.18672,-0.0019535,0.2463,-0.78216,-0.56386,-0.52695,0.002469,0,0,-0.66352,-0.095945,0,0.012839,0,0,0.57533,-0.010397,0,0.57542,-0.56383,-0.78218,-0.52695,89.352,-0.62432,0.23893,-0.00064469,0.76,0.8,0
0.17301,-0.0017012,0.22328,-0.78194,-0.54472,-0.50964,0.0028998,0,0,-0.70799,-0.091226,0,0.015079,0,0,0.57623,-0.010911,0,0.57634,-0.54469,-0.78197,-0.50964,89.3,-0.6121,0.25661,-0.00081357,0.78,0.8,0
0.1584,-0.0014685,0.2002,-0.78198,-0.52568,-0.4924,0.00322,0,0,-0.7529,-0.086538,0,0.016744,0,0,0.57752,-0.011476,0,0.57764,-0.52565,-0.78202,-0.4924,89.28,-0.60002,0.27451,-0.0010101,0.8,0.8,0
0.14289,-0.0012643,0.17707,-0.78223,-0.50682,-0.47525,0.003371,0,0,-0.79815,-0.082068,0,0.017529,0,0,0.57925,-0.012036,0,0.57937,-0.50677,-0.78227,-0.47525,89.299,-0.5881,0.29254,-0.0012356,0.82,0.8,0
0.12647,-0.0010988,0.15387,-0.78263,-0.48821,-0.45819,0.0033028,0,0,-0.84356,-0.07807,0,0.017175,0,0,0.58142,-0.0125,0,0.58156,-0.48818,-0.78267,-0.45819,89.357,-0.57634,0.31057,-0.0014903,0.84,0.8,0
0.10915,-0.00098119,0.13056,-0.78307,-0.46999,-0.4412,0.002995,0,0,-0.88888,-0.074854,0,0.015574,0,0,0.58404,-0.012727,0,0.58418,-0.46996,-0.7831,-0.4412,89.452,-0.56475,0.32847,-0.0017732,0.86,0.8,0
0.090919,-0.00091627,0.10714,-0.78346,-0.45225,-0.42428,0.0024763,0,0,-0.93385,-0.072721,0,0.012877,0,0,0.58704,-0.012532,0,0.58718,-0.45223,-0.78347,-0.42428,89.572,-0.55333,0.34606,-0.0020818,0.88,0.8,0
0.071795,-0.00090079,0.083597,-0.78367,-0.43505,-0.40741,0.0018324,0,0,-0.97826,-0.071845,0,0.0095287,0,0,0.59025,-0.011707,0,0.59037,-0.43504,-0.78368,-0.40741,89.699,-0.54204,0.36324,-0.0024136,0.9,0.8,0
0.051789,-0.00092096,0.059921,-0.78363,-0.41829,-0.39054,0.00118,0,0,-1.022,-0.072152,0,0.0061361,0,0,0.59343,-0.010069,0,0.59352,-0.41828,-0.78364,-0.39054,89.815,-0.53082,0.37999,-0.0027673,0.92,0.8,0
0.030913,-0.00095384,0.036122,-0.78348,-0.43488,-0.3926,0.00042233,0,0,-0.76909,-0.073284,0,0.001819,0,0,0.59685,-0.011287,0,0.59697,-0.43488,-0.78348,-0.3926,89.932,-0.53699,0.37181,-0.0025314,0.94,0.8,0
0.021025,-0.0010293,0.024147,-0.78343,-0.45331,-0.39517,-0.00036435,0,0,-0.50474,-0.075579,0,-0.0009473,0,0,0.60068,-0.011225,0,0.60079,-0.45331,-0.78343,-0.39517,-89.937,-0.54397,0.3627,-0.0022399,0.96,0.8,0
0.010723,-0.0011018,0.012095,-0.78266,-0.43815,-0.37834,-0.00046919,0,0,-0.52562,-0.077751,0,-0.0012199,0,0,0.60368,-0.0060051,0,0.60371,-0.43815,-0.78266,-0.37834,-89.922,-0.53305,0.37799,-0.0025412,0.98,0.8,0
0,-0.0011301,0,-0.76711,-0.41513,-0.35467,-0.0005444,0,0,-0.53617,-0.078596,0,-0.0014154,0,0,0.60474,-8.2399e-18,0,0.60474,-0.41513,-0.76711,-0.35467,-89.911,-0.51231,0.38578,-0.0027063,1,0.8,0
0,-0.018238,1,-0.98131,-1.8911,-1.8617,-0.020959,0,0,1.1446,-0.038232,0,-0.054494,0,0,0.70534,-3.1607e-15,0,0.70507,-0.98082,-1.8916,-1.8617,-1.319,-1.5781,0.89623,0.036834,0,0.82,0
0.022891,-0.019328,0.98589,-0.96893,-1.8678,-1.8369,-0.050395,0,0,1.1284,-0.04018,0,-0.13103,0,0,0.70646,0.048435,0,0.70776,-0.96611,-1.8706,-1.8369,-3.1988,-1.5579,0.88815,0.035807,0.02,0.82,0
0.045136,-0.022711,0.97174,-0.984,-1.8624,-1.8256,-0.14069,0,0,1.0941,-0.047727,0,-0.36579,0,0,0.71914,0.1092,0,0.7264,-0.96201,-1.8843,-1.8256,-8.8813,-1.5573,0.89443,0.036217,0.04,0.82,0
0.066657,-0.03213,0.95713,-0.91936,-1.5214,-1.4501,-0.21778,0,0,0.8887,-0.17097,0,-0.79878,0,0,0.6488,0.17096,0,0.67077,-0.84826,-1.5925,-1.4501,-18.358,-1.297,0.68866,0.01878,0.06,0.82,0
0.082557,-0.046063,0.93768,-0.91782,-1.3326,-1.3784,-0.14904,0,0,0.7983,-0.073706,0,-0.54932,0,0,0.71658,0.083618,0,0.72151,-0.86525,-1.3852,-1.3784,-18.372,-1.2096,0.55335,0.0043518,0.08,0.82,0
0.098589,-0.052199,0.91891,-0.89159,-1.3084,-1.3492,-0.076369,0,0,0.79314,-0.079893,0,-0.29061,0,0,0.70129,0.053393,0,0.70343,-0.87699,-1.323,-1.3492,-10.589,-1.183,0.5041,0.0019119,0.1,0.82,0
0.11428,-0.056067,0.90027,-0.88067,-1.2869,-1.3255,-0.050415,0,0,0.77097,-0.085198,0,-0.19328,0,0,0.69722,0.03406,0,0.69809,-0.87399,-1.2935,-1.3255,-7.4366,-1.1643,0.4845,0.0011791,0.12,0.82,0
0.12943,-0.058327,0.88172,-0.87687,-1.2695,-1.3052,-0.033331,0,0,0.74245,-0.089253,0,-0.12854,0,0,0.69444,0.019988,0,0.69473,-0.87382,-1.2726,-1.3052,-5.1866,-1.1505,0.4658,0.00076934,0.14,0.82,0
0.14398,-0.059486,0.86324,-0.87445,-1.2521,-1.2854,-0.021622,0,0,0.71231,-0.092108,0,-0.083634,0,0,0.69234,0.0086866,0,0.69238,-0.8731,-1.2535,-1.2854,-3.5538,-1.1373,0.44829,0.00047532,0.16,0.82,0
0.15792,-0.059784,0.8448,-0.87267,-1.2345,-1.2657,-0.012512,0,0,0.68133,-0.093854,0,-0.048466,0,0,0.69058,-0.0011037,0,0.69056,-0.87219,-1.235,-1.2657,-2.1796,-1.1243,0.43106,0.00024815,0.18,0.82,0
0.17123,-0.059362,0.82641,-0.87108,-1.2164,-1.2461,-0.0046181,0,0,0.64996,-0.094653,0,-0.017845,0,0,0.68901,-0.010204,0,0.68909,-0.87101,-1.2165,-1.2461,-0.85895,-1.1112,0.41397,6.6923e-05,0.2,0.82,0
0.18392,-0.058282,0.80805,-0.86951,-1.198,-1.2263,0.003164,0,0,0.61843,-0.094683,0,0.012398,0,0,0.68759,-0.019279,0,0.68789,-0.86947,-1.198,-1.2263,0.62074,-1.0979,0.39707,-7.4052e-05,0.22,0.82,0
0.19597,-0.056543,0.78973,-0.86789,-1.1793,-1.2065,0.011896,0,0,0.58686,-0.094127,0,0.046283,0,0,0.68627,-0.029007,0,0.68696,-0.86737,-1.1799,-1.2065,2.5205,-1.0846,0.38059,-0.00017441,0.24,0.82,0
0.20739,-0.054078,0.77145,-0.8664,-1.1607,-1.1867,0.022837,0,0,0.55521,-0.093157,0,0.088554,0,0,0.68511,-0.040247,0,0.68642,-0.86431,-1.1628,-1.1867,5.1914,-1.0713,0.36499,-0.00022564,0.26,0.82,0
0.21818,-0.050735,0.7532,-0.86548,-1.1424,-1.1672,0.038364,0,0,0.52306,-0.091957,0,0.14789,0,0,0.68436,-0.054336,0,0.68675,-0.85913,-1.1487,-1.1672,9.2225,-1.0584,0.35164,-0.0002084,0.28,0.82,0
0.22831,-0.046157,0.73495,-0.86972,-1.1279,-1.1505,0.061424,0,0,0.48668,-0.09066,0,0.23511,0,0,0.68463,-0.073893,0,0.68899,-0.85288,-1.1447,-1.1505,14.81,-1.0494,0.34156,-3.9271e-05,0.3,0.82,0
0.23765,-0.039892,0.71668,-0.88616,-1.1163,-1.1382,0.12175,0,0,0.43696,-0.089615,0,0.4514,0,0,0.69695,-0.10469,0,0.70521,-0.82441,-1.1781,-1.1382,24.777,-1.0469,0.36763,0.00083168,0.32,0.82,0
0.24579,-0.027763,0.69778,-0.85862,-1.2269,-1.149,0.18374,0,0,0.47933,-0.17433,0,0.67708,0,0,0.62749,-0.1968,0,0.65791,-0.78226,-1.3033,-1.149,22.807,-1.0782,0.46759,0.0044567,0.34,0.82,0
0.25826,-0.019545,0.68376,-0.91742,-1.4502,-1.3941,0.12248,0,0,0.61962,-0.073013,0,0.31846,0,0,0.68165,-0.15271,0,0.6978,-0.89061,-1.477,-1.3941,12.346,-1.2539,0.54964,0.0078771,0.36,0.82,0
0.27058,-0.01571,0.67052,-0.89253,-1.4149,-1.3627,0.057441,0,0,0.61128,-0.067798,0,0.14935,0,0,0.65368,-0.10496,0,0.66191,-0.88628,-1.4211,-1.3627,6.2017,-1.2234,0.50818,0.0064411,0.38,0.82,0
0.28271,-0.013229,0.65761,-0.8747,-1.3861,-1.3359,0.028613,0,0,0.59951,-0.065367,0,0.074393,0,0,0.63722,-0.076517,0,0.64178,-0.87311,-1.3878,-1.3359,3.1921,-1.1989,0.49076,0.0058424,0.4,0.82,0
0.29456,-0.011766,0.64503,-0.85175,-1.1069,-1.0714,0.0097658,0,0,0.27482,-0.061596,0,0.031379,0,0,0.62338,-0.044951,0,0.62517,-0.85041,-1.1082,-1.0714,13.79,-1.01,0.25215,0.002777,0.42,0.82,0
0.2937,-0.010599,0.62033,-0.83551,-0.84511,-0.81435,0.0012445,0,0,-0.05502,-0.079984,0,0.0064711,0,0,0.61383,-0.020304,0,0.61417,-0.83535,-0.84527,-0.81435,7.2662,-0.83166,0.027346,6.0362e-07,0.44,0.82,0
0.29236,-0.0098105,0.59592,-0.82691,-0.83239,-0.79575,-0.0022213,0,0,-0.081023,-0.095254,0,-0.011551,0,0,0.60673,-0.014037,0,0.6069,-0.82612,-0.83317,-0.79575,-19.533,-0.81835,0.034445,1.8061e-06,0.46,0.82,0
0.29046,-0.0092286,0.57179,-0.81951,-0.81836,-0.77725,-0.0038103,0,0,-0.10985,-0.10689,0,-0.019813,0,0,0.60035,-0.010245,0,0.60045,-0.81508,-0.82279,-0.77725,-49.255,-0.80504,0.042211,3.433e-06,0.48,0.82,0
0.28796,-0.0087528,0.54789,-0.8132,-0.80312,-0.75884,-0.0043284,0,0,-0.14133,-0.11513,0,-0.022508,0,0,0.59483,-0.008159,0,0.59489,-0.80152,-0.81481,-0.75884,-69.672,-0.79172,0.050644,5.1552e-06,0.5,0.82,0
0.28481,-0.0083289,0.5242,-0.80787,-0.78689,-0.74053,-0.0042922,0,0,-0.17508,-0.12054,0,-0.022319,0,0,0.59021,-0.0071657,0,0.59026,-0.78604,-0.80871,-0.74053,-78.872,-0.77843,0.060144,6.0618e-06,0.52,0.82,0
0.28096,-0.0079297,0.50068,-0.80332,-0.76989,-0.7223,-0.0039954,0,0,-0.21065,-0.12374,0,-0.020776,0,0,0.58642,-0.0068186,0,0.58647,-0.76942,-0.80379,-0.7223,-83.278,-0.76517,0.070861,4.8785e-06,0.54,0.82,0
0.27638,-0.0075433,0.47729,-0.79943,-0.75233,-0.70417,-0.0035879,0,0,-0.24766,-0.12522,0,-0.018657,0,0,0.58336,-0.0068245,0,0.5834,-0.75206,-0.7997,-0.70417,-85.668,-0.75198,0.082728,1.343e-07,0.56,0.82,0
0.27105,-0.0071646,0.45401,-0.79605,-0.73435,-0.68612,-0.0031347,0,0,-0.28581,-0.12539,0,-0.0163,0,0,0.5809,-0.0070081,0,0.58094,-0.73419,-0.79621,-0.68612,-87.099,-0.73884,0.095591,-9.7476e-06,0.58,0.82,0
0.26495,-0.0067915,0.43082,-0.79311,-0.71606,-0.66816,-0.0026555,0,0,-0.32487,-0.12455,0,-0.013809,0,0,0.57893,-0.0072739,0,0.57898,-0.71597,-0.7932,-0.66816,-88.028,-0.72577,0.10928,-2.6414e-05,0.6,0.82,0
0.25806,-0.0064228,0.40769,-0.79053,-0.69753,-0.65026,-0.002149,0,0,-0.36469,-0.12289,0,-0.011175,0,0,0.57737,-0.0075768,0,0.57742,-0.69748,-0.79058,-0.65026,-88.677,-0.71277,0.12366,-5.1573e-05,0.62,0.82,0
0.25036,-0.0060575,0.38462,-0.78827,-0.67882,-0.63244,-0.0016052,0,0,-0.40516,-0.12059,0,-0.0083472,0,0,0.57615,-0.0079028,0,0.57621,-0.6788,-0.78829,-0.63244,-89.16,-0.69984,0.13862,-8.6999e-05,0.64,0.82,0
0.24185,-0.0056941,0.3616,-0.7863,-0.65997,-0.61468,-0.0010135,0,0,-0.44621,-0.11775,0,-0.0052701,0,0,0.57524,-0.008256,0,0.5753,-0.65996,-0.78631,-0.61468,-89.54,-0.68698,0.15406,-0.00013455,0.66,0.82,0
0.23252,-0.0053316,0.33861,-0.78461,-0.64102,-0.59699,-0.00036607,0,0,-0.48781,-0.11446,0,-0.0019035,0,0,0.57459,-0.0086509,0,0.57465,-0.64102,-0.78461,-0.59699,-89.854,-0.67421,0.16994,-0.00019618,0.68,0.82,0
0.22234,-0.0049688,0.31563,-0.78319,-0.62197,-0.57937,0.00033881,0,0,-0.52994,-0.11078,0,0.0017618,0,0,0.5742,-0.0091073,0,0.57427,-0.62197,-0.78319,-0.57937,89.88,-0.66151,0.18621,-0.000274,0.7,0.82,0
0.21132,-0.0046057,0.29267,-0.78205,-0.60287,-0.56181,0.0010947,0,0,-0.57263,-0.10675,0,0.0056923,0,0,0.57407,-0.0096471,0,0.57415,-0.60286,-0.78206,-0.56181,89.65,-0.64891,0.20286,-0.00037028,0.72,0.82,0
0.19944,-0.0042435,0.26971,-0.78121,-0.58371,-0.54433,0.0018841,0,0,-0.61589,-0.10239,0,0.0097973,0,0,0.57422,-0.010291,0,0.57431,-0.58369,-0.78123,-0.54433,89.454,-0.63642,0.21988,-0.0004875,0.74,0.82,0
0.18668,-0.0038852,0.24673,-0.78069,-0.56452,-0.52693,0.0026755,0,0,-0.65977,-0.097741,0,0.013913,0,0,0.57468,-0.011055,0,0.57478,-0.56449,-0.78072,-0.52693,89.291,-0.62405,0.23725,-0.00062833,0.76,0.82,0
0.17305,-0.0035365,0.22373,-0.7805,-0.54532,-0.50961,0.0034198,0,0,-0.7043,-0.092843,0,0.017783,0,0,0.5755,-0.011943,0,0.57562,-0.54527,-0.78055,-0.50961,89.167,-0.61181,0.25498,-0.0007956,0.78,0.82,0
0.15851,-0.0032062,0.20069,-0.78066,-0.52615,-0.49239,0.0040482,0,0,-0.74951,-0.087774,0,0.021051,0,0,0.57675,-0.012943,0,0.57689,-0.52609,-0.78073,-0.49239,89.089,-0.59973,0.27305,-0.00099212,0.8,0.82,0
0.14306,-0.002907,0.17759,-0.78116,-0.50706,-0.47526,0.0044744,0,0,-0.79533,-0.08268,0,0.023267,0,0,0.5785,-0.014004,0,0.57867,-0.50699,-0.78123,-0.47526,89.065,-0.58783,0.2914,-0.0012202,0.82,0.82,0
0.1267,-0.0026542,0.15441,-0.78194,-0.48817,-0.45824,0.0046066,0,0,-0.84162,-0.077813,0,0.023954,0,0,0.58084,-0.015024,0,0.58104,-0.48809,-0.78201,-0.45824,89.102,-0.57611,0.30993,-0.0014812,0.84,0.82,0
0.1094,-0.0024641,0.13113,-0.78289,-0.46961,-0.44131,0.0043754,0,0,-0.8881,-0.073566,0,0.022752,0,0,0.58382,-0.015823,0,0.58404,-0.46955,-0.78295,-0.44131,89.2,-0.5646,0.32843,-0.0017743,0.86,0.82,0
0.091173,-0.0023492,0.10771,-0.78386,-0.45157,-0.42448,0.0037773,0,0,-0.93439,-0.07042,0,0.019642,0,0,0.58742,-0.016127,0,0.58765,-0.45152,-0.7839,-0.42448,89.349,-0.5533,0.34669,-0.0020964,0.88,0.82,0
0.072025,-0.0023113,0.084132,-0.78469,-0.43418,-0.40773,0.0029013,0,0,-0.9801,-0.068786,0,0.015087,0,0,0.59149,-0.01559,0,0.5917,-0.43416,-0.78471,-0.40773,89.526,-0.5422,0.36449,-0.0024429,0.9,0.82,0
0.051969,-0.0023361,0.060388,-0.78522,-0.41742,-0.39099,0.0019144,0,0,-1.025,-0.06873,0,0.0099548,0,0,0.59571,-0.013868,0,0.59587,-0.41741,-0.78523,-0.39099,89.702,-0.53121,0.38172,-0.0028105,0.92,0.82,0
0.031024,-0.0023929,0.036476,-0.78528,-0.4332,-0.3929,0.00067566,0,0,-0.7719,-0.069852,0,0.0029777,0,0,0.60047,-0.016111,0,0.60072,-0.4332,-0.78528,-0.3929,89.892,-0.53712,0.3741,-0.0025902,0.94,0.82,0
0.021093,-0.002526,0.024413,-0.78565,-0.45255,-0.39587,-0.00060467,0,0,-0.50671,-0.073684,0,-0.0015721,0,0,0.60596,-0.01628,0,0.60618,-0.45255,-0.78565,-0.39587,-89.896,-0.54469,0.36475,-0.0022909,0.96,0.82,0
0.010756,-0.0026526,0.012238,-0.78497,-0.43869,-0.37934,-0.00075699,0,0,-0.52733,-0.077163,0,-0.0019682,0,0,0.61033,-0.0087874,0,0.61038,-0.43869,-0.78497,-0.37934,-89.875,-0.53433,0.37946,-0.0025762,0.98,0.82,0
0,-0.0027019,0,-0.76924,-0.41592,-0.35555,-0.0009473,0,0,-0.5378,-0.078488,0,-0.002463,0,0,0.61188,-3.4694e-18,0,0.61187,-0.41592,-0.76924,-0.35555,-89.846,-0.51357,0.38705,-0.0027354,1,0.82,0
0,-0.018608,1,-0.97332,-1.8458,-1.8458,-0.019567,0,0,1.1342,-0.00011813,0,-0.050875,0,0,0.75276,-9.1246e-16,0,0.75256,-0.97288,-1.8463,-1.8458,-1.2841,-1.555,0.87313,0.034187,0,0.84,0
0.022683,-0.019626,0.98494,-0.95275,-1.8121,-1.8144,-0.048376,0,0,1.1201,0.0029982,0,-0.12578,0,0,0.75989,0.042326,0,0.76086,-0.95003,-1.8148,-1.8144,-3.2119,-1.5264,0.86457,0.033191,0.02,0.84,0
0.044806,-0.023205,0.9696,-0.97994,-1.79,-1.8006,-0.10903,0,0,1.0669,0.013722,0,-0.28347,0,0,0.79199,0.090565,0,0.797,-0.96553,-1.8045,-1.8006,-7.5325,-1.5235,0.83701,0.030115,0.04,0.84,0
0.065357,-0.029875,0.95327,-1.0049,-1.6518,-1.7503,-0.16841,0,0,0.96898,0.12803,0,-0.43787,0,0,0.84181,0.13963,0,0.85449,-0.96368,-1.693,-1.7503,-13.753,-1.469,0.75958,0.022077,0.06,0.84,0
0.083565,-0.038352,0.93593,-1.0044,-1.4017,-1.6578,-0.14282,0,0,0.84935,0.33289,0,-0.37134,0,0,0.88674,0.082451,0,0.89027,-0.95841,-1.4477,-1.6578,-17.858,-1.3546,0.62155,0.007752,0.08,0.84,0
0.099331,-0.044761,0.9178,-1.0429,-1.3629,-1.6395,-0.093529,0,0,0.77568,0.35958,0,-0.24318,0,0,0.90919,0.053748,0,0.91073,-1.0175,-1.3882,-1.6395,-15.152,-1.3484,0.54197,0.0026592,0.1,0.84,0
0.11459,-0.048643,0.89956,-1.0288,-1.326,-1.606,-0.05834,0,0,0.75037,0.36402,0,-0.15168,0,0,0.91232,0.03507,0,0.91297,-1.0177,-1.337,-1.606,-10.718,-1.3202,0.51006,0.0010049,0.12,0.84,0
0.12935,-0.051044,0.8813,-1.0201,-1.2994,-1.5772,-0.03838,0,0,0.72413,0.36107,0,-0.099788,0,0,0.91298,0.021261,0,0.91321,-1.015,-1.3046,-1.5772,-7.6841,-1.2989,0.48696,0.00031175,0.14,0.84,0
0.14356,-0.05234,0.86304,-1.0151,-1.2769,-1.5507,-0.024681,0,0,0.69621,0.35586,0,-0.06417,0,0,0.91243,0.010112,0,0.91247,-1.0128,-1.2792,-1.5507,-5.3386,-1.2809,0.4658,-8.3771e-05,0.16,0.84,0
0.15719,-0.052779,0.84481,-1.0124,-1.2564,-1.5254,-0.014478,0,0,0.66697,0.34974,0,-0.037642,0,0,0.91123,0.00044315,0,0.91122,-1.0115,-1.2573,-1.5254,-3.3834,-1.2648,0.4452,-0.00034233,0.18,0.84,0
0.17024,-0.052494,0.8266,-1.0111,-1.2371,-1.5011,-0.0058991,0,0,0.63692,0.34314,0,-0.015338,0,0,0.90953,-0.0085182,0,0.90956,-1.011,-1.2373,-1.5011,-1.4943,-1.2498,0.42485,-0.00052025,0.2,0.84,0
0.18267,-0.051552,0.80842,-1.0109,-1.2188,-1.4773,0.0023655,0,0,0.6064,0.3361,0,0.0061502,0,0,0.90733,-0.017396,0,0.90749,-1.0108,-1.2188,-1.4773,0.65171,-1.2356,0.40478,-0.0006345,0.22,0.84,0
0.19449,-0.049955,0.7903,-1.0114,-1.2016,-1.4542,0.011564,0,0,0.57564,0.32837,0,0.030065,0,0,0.90449,-0.026822,0,0.90488,-1.0107,-1.2023,-1.4542,3.4662,-1.2224,0.38526,-0.00068366,0.24,0.84,0
0.2057,-0.047644,0.77224,-1.013,-1.1864,-1.4321,0.023318,0,0,0.54477,0.31935,0,0.060628,0,0,0.90069,-0.037599,0,0.90146,-1.0099,-1.1895,-1.4321,7.527,-1.2105,0.36693,-0.00064722,0.26,0.84,0
0.21628,-0.044468,0.75428,-1.0159,-1.1748,-1.4115,0.039903,0,0,0.51423,0.30772,0,0.10375,0,0,0.8952,-0.050983,0,0.89663,-1.0065,-1.1842,-1.4115,13.337,-1.2007,0.35163,-0.00046808,0.28,0.84,0
0.22627,-0.04018,0.73644,-1.0202,-1.1716,-1.394,0.068406,0,0,0.48588,0.28911,0,0.17786,0,0,0.8867,-0.06937,0,0.88936,-0.9939,-1.1979,-1.394,21.055,-1.1953,0.34651,7.3668e-05,0.3,0.84,0
0.23572,-0.034025,0.71881,-0.97746,-1.1691,-1.3628,0.10716,0,0,0.50092,0.25176,0,0.27861,0,0,0.85801,-0.098392,0,0.86334,-0.92953,-1.217,-1.3628,24.097,-1.1698,0.38184,0.0015194,0.32,0.84,0
0.2463,-0.02654,0.70212,-0.96572,-1.3321,-1.3915,0.12946,0,0,0.55347,0.077148,0,0.3366,0,0,0.80445,-0.15898,0,0.82153,-0.9246,-1.3733,-1.3915,17.624,-1.2298,0.45804,0.0049092,0.34,0.84,0
0.25786,-0.020552,0.68663,-0.93016,-1.3987,-1.3853,0.083945,0,0,0.59166,-0.017418,0,0.21826,0,0,0.74167,-0.11882,0,0.75131,-0.91557,-1.4133,-1.3853,9.8573,-1.238,0.48431,0.0057686,0.36,0.84,0
0.26997,-0.016662,0.67245,-0.8921,-1.3797,-1.354,0.042555,0,0,0.60045,-0.033399,0,0.11064,0,0,0.69113,-0.081082,0,0.69591,-0.88841,-1.3834,-1.354,4.9508,-1.2086,0.48093,0.0056412,0.38,0.84,0
0.28187,-0.014293,0.65898,-0.87807,-1.3642,-1.3317,0.015014,0,0,0.58968,-0.042307,0,0.039035,0,0,0.65951,-0.055352,0,0.66191,-0.8776,-1.3647,-1.3317,1.7672,-1.1913,0.47143,0.0052924,0.4,0.84,0
0.29356,-0.012809,0.64607,-0.85408,-1.0951,-1.0693,-0.0011618,0,0,0.26759,-0.044753,0,-0.010447,0,0,0.6364,-0.029772,0,0.63721,-0.85078,-1.0984,-1.0693,-24.287,-1.0062,0.24404,0.0025757,0.42,0.84,0
0.29258,-0.012095,0.62099,-0.83666,-0.84154,-0.81395,-0.0080563,0,0,-0.059032,-0.07172,0,-0.041893,0,0,0.62156,-0.011037,0,0.62167,-0.83068,-0.84751,-0.81395,-36.575,-0.83071,0.029066,-7.0672e-09,0.44,0.84,0
0.29119,-0.011666,0.59635,-0.82694,-0.83115,-0.7956,-0.010041,0,0,-0.081489,-0.092429,0,-0.052214,0,0,0.61139,-0.0058856,0,0.61143,-0.81879,-0.8393,-0.7956,-39.083,-0.8179,0.037873,2.9434e-07,0.46,0.84,0
0.28932,-0.01135,0.57208,-0.81878,-0.81834,-0.77718,-0.010221,0,0,-0.10818,-0.10703,0,-0.053148,0,0,0.60284,-0.0033999,0,0.60286,-0.80834,-0.82879,-0.77718,-45.618,-0.80477,0.045016,1.6416e-06,0.48,0.84,0
0.28687,-0.011056,0.54812,-0.81207,-0.80363,-0.75877,-0.0095518,0,0,-0.13858,-0.11664,0,-0.049669,0,0,0.59591,-0.0026123,0,0.59592,-0.79741,-0.81829,-0.75877,-56.917,-0.79149,0.052307,3.5985e-06,0.5,0.84,0
0.28378,-0.010748,0.5244,-0.80655,-0.78758,-0.74044,-0.008571,0,0,-0.17189,-0.12256,0,-0.044569,0,0,0.59046,-0.0027611,0,0.59047,-0.78428,-0.80985,-0.74044,-68.951,-0.77819,0.060801,5.0464e-06,0.52,0.84,0
0.27999,-0.010416,0.50088,-0.80196,-0.77061,-0.72221,-0.0075427,0,0,-0.20734,-0.12584,0,-0.039222,0,0,0.58623,-0.0033456,0,0.58624,-0.76889,-0.80368,-0.72221,-77.15,-0.76493,0.070803,4.5504e-06,0.54,0.84,0
0.27548,-0.010061,0.47751,-0.79807,-0.75303,-0.70408,-0.0065655,0,0,-0.24436,-0.12727,0,-0.034141,0,0,0.58296,-0.0040857,0,0.58298,-0.75209,-0.799,-0.70408,-81.873,-0.75173,0.082207,5.7235e-07,0.56,0.84,0
0.27022,-0.009686,0.45424,-0.7947,-0.73502,-0.68604,-0.0056602,0,0,-0.28253,-0.12735,0,-0.029433,0,0,0.58043,-0.0048425,0,0.58045,-0.73449,-0.79524,-0.68604,-84.63,-0.73859,0.094768,-8.4625e-06,0.58,0.84,0
0.26418,-0.0092963,0.43107,-0.79176,-0.71671,-0.66808,-0.0048114,0,0,-0.32158,-0.12645,0,-0.02502,0,0,0.57844,-0.0055595,0,0.57847,-0.71641,-0.79207,-0.66808,-86.347,-0.72552,0.10825,-2.4151e-05,0.6,0.84,0
0.25736,-0.0088953,0.40797,-0.78916,-0.69819,-0.65019,-0.0039911,0,0,-0.36132,-0.12481,0,-0.020754,0,0,0.57689,-0.0062253,0,0.57692,-0.69802,-0.78933,-0.65019,-87.493,-0.71251,0.12245,-4.8121e-05,0.62,0.84,0
0.24973,-0.008485,0.38492,-0.78685,-0.67951,-0.63237,-0.003169,0,0,-0.40164,-0.12258,0,-0.016479,0,0,0.57567,-0.0068532,0,0.57571,-0.67942,-0.78694,-0.63237,-88.31,-0.69958,0.13723,-8.2054e-05,0.64,0.84,0
0.24129,-0.0080664,0.36191,-0.78479,-0.66071,-0.61461,-0.0023182,0,0,-0.44248,-0.11987,0,-0.012054,0,0,0.57473,-0.0074691,0,0.57478,-0.66067,-0.78484,-0.61461,-88.93,-0.68671,0.15251,-0.00012771,0.66,0.84,0
0.23203,-0.0076397,0.33894,-0.78299,-0.64182,-0.59691,-0.0014173,0,0,-0.4838,-0.11675,0,-0.0073701,0,0,0.57404,-0.0081053,0,0.57409,-0.64181,-0.783,-0.59691,-89.425,-0.67391,0.1682,-0.00018697,0.68,0.84,0
0.22194,-0.007205,0.31599,-0.78144,-0.62285,-0.57928,-0.00045245,0,0,-0.52561,-0.11327,0,-0.0023527,0,0,0.57357,-0.0087978,0,0.57364,-0.62284,-0.78144,-0.57928,-89.837,-0.66119,0.18428,-0.00026186,0.7,0.84,0
0.211,-0.0067628,0.29306,-0.78016,-0.6038,-0.56172,0.00058154,0,0,-0.56795,-0.10943,0,0.003024,0,0,0.57334,-0.0095836,0,0.57342,-0.6038,-0.78016,-0.56172,89.811,-0.64856,0.20074,-0.00035466,0.72,0.84,0
0.19922,-0.0063144,0.27013,-0.77918,-0.5847,-0.54422,0.0016781,0,0,-0.61088,-0.10523,0,0.008726,0,0,0.57336,-0.0105,0,0.57346,-0.58468,-0.77919,-0.54422,89.506,-0.63603,0.21758,-0.00046796,0.74,0.84,0
0.18657,-0.0058631,0.24719,-0.77854,-0.56552,-0.52681,0.0028147,0,0,-0.65449,-0.10065,0,0.014636,0,0,0.57368,-0.011581,0,0.57379,-0.56549,-0.77858,-0.52681,89.243,-0.62363,0.23483,-0.00060473,0.76,0.84,0
0.17304,-0.0054149,0.22423,-0.77831,-0.54629,-0.50949,0.003947,0,0,-0.69891,-0.095668,0,0.020524,0,0,0.57434,-0.012854,0,0.57449,-0.54622,-0.77837,-0.50949,89.026,-0.61136,0.25253,-0.00076841,0.78,0.84,0
0.15861,-0.0049794,0.20124,-0.77853,-0.527,-0.49228,0.0050012,0,0,-0.74425,-0.09028,0,0.026006,0,0,0.57547,-0.01433,0,0.57564,-0.5269,-0.77863,-0.49228,88.861,-0.59927,0.2707,-0.00096286,0.8,0.84,0
0.14327,-0.0045715,0.17819,-0.77925,-0.50769,-0.47518,0.0058681,0,0,-0.79058,-0.084531,0,0.030514,0,0,0.57716,-0.015986,0,0.57739,-0.50756,-0.77938,-0.47518,88.763,-0.58737,0.28937,-0.001192,0.82,0.84,0
0.12699,-0.0042113,0.15507,-0.78047,-0.48843,-0.45821,0.0064035,0,0,-0.8379,-0.078594,0,0.033298,0,0,0.5796,-0.017736,0,0.57987,-0.48829,-0.78061,-0.45821,88.745,-0.5757,0.30847,-0.0014592,0.84,0.84,0
0.10975,-0.0039238,0.13183,-0.7821,-0.46938,-0.44136,0.0064548,0,0,-0.88594,-0.072862,0,0.033565,0,0,0.58294,-0.019383,0,0.58326,-0.46925,-0.78224,-0.44136,88.818,-0.56428,0.32782,-0.0017653,0.86,0.84,0
0.091552,-0.003733,0.10843,-0.78396,-0.45082,-0.42465,0.0059224,0,0,-0.93422,-0.068033,0,0.030797,0,0,0.58727,-0.020556,0,0.58764,-0.45071,-0.78407,-0.42465,88.982,-0.55314,0.34712,-0.0021074,0.88,0.84,0
0.072385,-0.0036522,0.084844,-0.7858,-0.43303,-0.40807,0.004863,0,0,-0.98209,-0.064894,0,0.025288,0,0,0.59251,-0.020698,0,0.59288,-0.43296,-0.78586,-0.40807,89.21,-0.5423,0.36598,-0.0024785,0.9,0.84,0
0.052269,-0.0036702,0.06103,-0.78736,-0.41613,-0.39156,0.0034702,0,0,-1.0291,-0.063867,0,0.018045,0,0,0.59828,-0.019161,0,0.59859,-0.41609,-0.7874,-0.39156,89.465,-0.53168,0.38416,-0.0028717,0.92,0.84,0
0.031222,-0.0037479,0.036981,-0.78793,-0.43044,-0.39325,0.0015641,0,0,-0.77617,-0.064468,0,0.0066805,0,0,0.60518,-0.023177,0,0.60568,-0.43043,-0.78794,-0.39325,89.753,-0.53721,0.37767,-0.0026826,0.94,0.84,0
0.021222,-0.0039767,0.024799,-0.78938,-0.45143,-0.39704,-0.00047166,0,0,-0.51004,-0.070705,0,-0.0012263,0,0,0.61337,-0.023818,0,0.61384,-0.45143,-0.78938,-0.39704,-89.92,-0.54595,0.36817,-0.0023756,0.96,0.84,0
0.010821,-0.0041884,0.012446,-0.78909,-0.43936,-0.38098,-0.00083202,0,0,-0.53054,-0.075889,0,-0.0021633,0,0,0.61996,-0.012971,0,0.62008,-0.43936,-0.78909,-0.38098,-89.864,-0.53648,0.38228,-0.0026452,0.98,0.84,0
0,-0.0042697,0,-0.77315,-0.41677,-0.35698,-0.0015638,0,0,-0.54103,-0.077733,0,-0.0040659,0,0,0.62232,-6.0715e-18,0,0.6223,-0.41677,-0.77316,-0.35698,-89.749,-0.51563,0.38974,-0.0028009,1,0.84,0
0,-0.018243,1,-0.96779,-1.804,-1.8315,-0.018562,0,0,1.1229,0.035801,0,-0.048261,0,0,0.79,-1.2195e-15,0,0.78989,-0.96738,-1.8044,-1.8315,-1.271,-1.5344,0.85092,0.031535,0,0.86,0
0.022457,-0.019208,0.9842,-0.95395,-1.7687,-1.801,-0.04359,0,0,1.1012,0.041982,0,-0.11333,0,0,0.79702,0.031091,0,0.79756,-0.95162,-1.771,-1.801,-3.0537,-1.5079,0.83479,0.029749,0.02,0.86,0
0.044046,-0.022163,0.96812,-0.96942,-1.7164,-1.7739,-0.090097,0,0,1.0458,0.074673,0,-0.23425,0,0,0.81644,0.059319,0,0.81868,-0.95871,-1.7271,-1.7739,-6.7809,-1.4866,0.79284,0.025297,0.04,0.86,0
0.064289,-0.027009,0.95154,-0.99292,-1.6157,-1.7341,-0.12318,0,0,0.96357,0.15395,0,-0.32026,0,0,0.84352,0.070065,0,0.84657,-0.96944,-1.6392,-1.7341,-10.791,-1.4476,0.72191,0.018201,0.06,0.86,0
0.082589,-0.032747,0.93438,-1.0106,-1.4782,-1.681,-0.12372,0,0,0.8716,0.26361,0,-0.32168,0,0,0.86956,0.064611,0,0.87204,-0.97984,-1.509,-1.681,-13.941,-1.3899,0.63294,0.0098507,0.08,0.86,0
0.099153,-0.037816,0.91676,-1.0293,-1.3913,-1.6429,-0.093527,0,0,0.79775,0.32711,0,-0.24317,0,0,0.88767,0.046875,0,0.88889,-1.0066,-1.4141,-1.6429,-13.662,-1.3545,0.55832,0.004143,0.1,0.86,0
0.1145,-0.041507,0.89887,-1.0383,-1.3482,-1.6148,-0.064038,0,0,0.7495,0.34662,0,-0.1665,0,0,0.89714,0.032355,0,0.89771,-1.0256,-1.3609,-1.6148,-11.227,-1.3337,0.51192,0.0016296,0.12,0.86,0
0.12913,-0.043884,0.88087,-1.0349,-1.3151,-1.5859,-0.042169,0,0,0.71623,0.35203,0,-0.10964,0,0,0.90097,0.020501,0,0.90119,-1.0287,-1.3213,-1.5859,-8.3768,-1.312,0.48272,0.00050196,0.14,0.86,0
0.14315,-0.045252,0.86283,-1.0312,-1.2886,-1.5588,-0.026879,0,0,0.6859,0.35119,0,-0.069886,0,0,0.9023,0.010474,0,0.90236,-1.0284,-1.2914,-1.5588,-5.8969,-1.2929,0.45933,-7.0688e-05,0.16,0.86,0
0.15657,-0.045795,0.84478,-1.0283,-1.2658,-1.533,-0.015366,0,0,0.65615,0.34735,0,-0.039952,0,0,0.90214,0.001593,0,0.90213,-1.0273,-1.2668,-1.533,-3.686,-1.2757,0.43817,-0.00039425,0.18,0.86,0
0.16939,-0.045637,0.82675,-1.0265,-1.2455,-1.5084,-0.005854,0,0,0.62642,0.34168,0,-0.01522,0,0,0.90084,-0.0066737,0,0.90086,-1.0263,-1.2457,-1.5084,-1.5299,-1.2601,0.418,-0.00058117,0.2,0.86,0
0.18163,-0.044838,0.80875,-1.0256,-1.2273,-1.4846,0.0030968,0,0,0.59678,0.33445,0,0.0080517,0,0,0.89848,-0.014784,0,0.8986,-1.0255,-1.2274,-1.4846,0.87903,-1.2458,0.39856,-0.00067291,0.22,0.86,0
0.19327,-0.043409,0.79081,-1.0252,-1.2116,-1.4618,0.012829,0,0,0.56763,0.32536,0,0.033356,0,0,0.89483,-0.023195,0,0.89512,-1.0243,-1.2124,-1.4618,3.9196,-1.2329,0.38014,-0.00067623,0.24,0.86,0
0.20433,-0.041304,0.77296,-1.0247,-1.1991,-1.4401,0.024819,0,0,0.53999,0.31332,0,0.06453,0,0,0.88931,-0.032439,0,0.8899,-1.0212,-1.2025,-1.4401,7.9454,-1.2213,0.36382,-0.00056912,0.26,0.86,0
0.21487,-0.038426,0.75524,-1.0224,-1.1922,-1.4196,0.041216,0,0,0.51641,0.2956,0,0.10716,0,0,0.8807,-0.04323,0,0.88176,-1.0129,-1.2017,-1.4196,12.944,-1.2114,0.35252,-0.00027815,0.28,0.86,0
0.22499,-0.034593,0.73773,-1.0082,-1.1937,-1.3983,0.062508,0,0,0.50715,0.26597,0,0.16252,0,0,0.86543,-0.056539,0,0.86729,-0.98908,-1.2128,-1.3983,16.987,-1.2001,0.3549,0.00036944,0.3,0.86,0
0.23515,-0.029822,0.72062,-0.98526,-1.2301,-1.3852,0.083252,0,0,0.51996,0.20165,0,0.21646,0,0,0.83966,-0.073386,0,0.84301,-0.95964,-1.2557,-1.3852,17.108,-1.2002,0.37787,0.001714,0.32,0.86,0
0.24579,-0.024678,0.70414,-0.96031,-1.3014,-1.3826,0.079809,0,0,0.54904,0.10565,0,0.2075,0,0,0.80267,-0.079018,0,0.80685,-0.94256,-1.3191,-1.3826,12.54,-1.2148,0.41202,0.0033063,0.34,0.86,0
0.25711,-0.020241,0.68851,-0.92843,-1.3431,-1.37,0.054723,0,0,0.57399,0.034959,0,0.14228,0,0,0.75954,-0.069927,0,0.7631,-0.92133,-1.3502,-1.37,7.3931,-1.2138,0.43907,0.0043176,0.36,0.86,0
0.26875,-0.017046,0.67376,-0.90183,-1.3525,-1.35,0.023478,0,0,0.58269,-0.0031617,0,0.061043,0,0,0.71715,-0.046085,0,0.71883,-0.90061,-1.3537,-1.35,2.9742,-1.2015,0.45128,0.0047193,0.38,0.86,0
0.28042,-0.014922,0.65983,-0.88152,-1.3445,-1.3276,8.5632e-05,0,0,0.57996,-0.021955,0,0.00022264,0,0,0.67861,-0.024283,0,0.67924,-0.88152,-1.3445,-1.3276,0.010597,-1.1846,0.4548,0.0048091,0.4,0.86,0
0.29194,-0.013556,0.64662,-0.85594,-1.0854,-1.0674,-0.014084,0,0,0.26165,-0.031286,0,-0.059474,0,0,0.64785,-0.0076993,0,0.64802,-0.84471,-1.0966,-1.0674,-26.465,-1.0029,0.24564,0.0024115,0.42,0.86,0
0.29089,-0.013468,0.62121,-0.83689,-0.83987,-0.81363,-0.018926,0,0,-0.060478,-0.068208,0,-0.098414,0,0,0.6278,0.0019655,0,0.62784,-0.81939,-0.85736,-0.81363,-42.755,-0.83013,0.041154,-3.3442e-06,0.44,0.86,0
0.28952,-0.013508,0.59639,-0.82589,-0.83184,-0.79551,-0.018803,0,0,-0.078983,-0.094436,0,-0.097774,0,0,0.61437,0.0049146,0,0.61442,-0.80983,-0.8479,-0.79551,-40.509,-0.81775,0.046897,-3.6812e-06,0.46,0.86,0
0.28773,-0.01351,0.57206,-0.81695,-0.81984,-0.77707,-0.017085,0,0,-0.1037,-0.11121,0,-0.088842,0,0,0.60362,0.0050578,0,0.60366,-0.80125,-0.83554,-0.77707,-42.583,-0.80462,0.050893,-1.9905e-06,0.48,0.86,0
0.28538,-0.013418,0.5481,-0.80997,-0.8053,-0.75863,-0.01491,0,0,-0.13348,-0.12134,0,-0.07753,0,0,0.59547,0.0037669,0,0.59549,-0.79254,-0.82273,-0.75863,-49.449,-0.7913,0.055538,8.8487e-07,0.5,0.86,0
0.28239,-0.013231,0.52442,-0.80442,-0.78911,-0.74027,-0.012836,0,0,-0.16678,-0.12699,0,-0.066745,0,0,0.58948,0.0020066,0,0.58949,-0.78182,-0.81171,-0.74027,-60.4,-0.77793,0.062142,3.4299e-06,0.52,0.86,0
0.2787,-0.012963,0.50094,-0.79992,-0.77196,-0.72203,-0.011019,0,0,-0.2025,-0.12981,0,-0.057299,0,0,0.5851,0.00023913,0,0.5851,-0.76814,-0.80374,-0.72203,-70.876,-0.76464,0.070952,4.0448e-06,0.54,0.86,0
0.27429,-0.012634,0.47761,-0.79614,-0.7542,-0.70391,-0.0094696,0,0,-0.2398,-0.13076,0,-0.049242,0,0,0.58186,-0.0013549,0,0.58186,-0.75216,-0.79818,-0.70391,-77.848,-0.75142,0.081648,1.1478e-06,0.56,0.86,0
0.26911,-0.012259,0.45439,-0.79288,-0.73606,-0.68588,-0.0081362,0,0,-0.2782,-0.13047,0,-0.042308,0,0,0.57942,-0.0027303,0,0.57943,-0.73492,-0.79402,-0.68588,-82.009,-0.73827,0.093787,-6.7924e-06,0.58,0.86,0
0.26316,-0.01185,0.43126,-0.78999,-0.71767,-0.66793,-0.0069541,0,0,-0.31736,-0.12933,0,-0.036161,0,0,0.57755,-0.0039033,0,0.57756,-0.71701,-0.79065,-0.66793,-84.557,-0.7252,0.10699,-2.1283e-05,0.6,0.86,0
0.25642,-0.011415,0.40819,-0.7874,-0.69912,-0.65005,-0.0058606,0,0,-0.3571,-0.12757,0,-0.030475,0,0,0.57608,-0.0049155,0,0.5761,-0.69873,-0.78778,-0.65005,-86.219,-0.71219,0.12098,-4.3837e-05,0.62,0.86,0
0.24888,-0.010961,0.38517,-0.78504,-0.68044,-0.63223,-0.004801,0,0,-0.39731,-0.12535,0,-0.024965,0,0,0.57491,-0.0058176,0,0.57494,-0.68022,-0.78526,-0.63223,-87.378,-0.69924,0.13556,-7.6003e-05,0.64,0.86,0
0.24053,-0.010489,0.3622,-0.7829,-0.66168,-0.61447,-0.00373,0,0,-0.43791,-0.12274,0,-0.019396,0,0,0.57398,-0.0066627,0,0.57402,-0.66157,-0.78302,-0.61447,-88.239,-0.68635,0.15062,-0.0001194,0.66,0.86,0
0.23136,-0.010002,0.33925,-0.78096,-0.64285,-0.59677,-0.0026111,0,0,-0.4789,-0.11981,0,-0.013578,0,0,0.57326,-0.0075041,0,0.57331,-0.6428,-0.78101,-0.59677,-88.917,-0.67353,0.16608,-0.00017576,0.68,0.86,0
0.22137,-0.0094996,0.31634,-0.77924,-0.62396,-0.57913,-0.0014157,0,0,-0.52028,-0.11657,0,-0.0073619,0,0,0.57272,-0.0083949,0,0.57278,-0.62395,-0.77925,-0.57913,-89.478,-0.66078,0.1819,-0.00024699,0.7,0.86,0
0.21055,-0.0089828,0.29344,-0.77775,-0.60501,-0.56155,-0.00012376,0,0,-0.56212,-0.11301,0,-0.00064355,0,0,0.57237,-0.009389,0,0.57244,-0.60501,-0.77775,-0.56155,-89.959,-0.6481,0.19808,-0.00033525,0.72,0.86,0
0.19889,-0.0084525,0.27055,-0.77653,-0.586,-0.54403,0.0012752,0,0,-0.6045,-0.1091,0,0.006631,0,0,0.57222,-0.010542,0,0.57232,-0.58599,-0.77654,-0.54403,89.617,-0.63552,0.21463,-0.0004431,0.74,0.86,0
0.18637,-0.0079111,0.24766,-0.77567,-0.5669,-0.5266,0.0027775,0,0,-0.64757,-0.10478,0,0.014443,0,0,0.57232,-0.011911,0,0.57245,-0.56686,-0.7757,-0.5266,89.238,-0.62306,0.23161,-0.00057366,0.76,0.86,0
0.17298,-0.0073632,0.22476,-0.77524,-0.5477,-0.50926,0.0043583,0,0,-0.69153,-0.099944,0,0.022663,0,0,0.57275,-0.013553,0,0.57291,-0.54762,-0.77532,-0.50926,88.903,-0.61073,0.2491,-0.00073084,0.78,0.86,0
0.15871,-0.0068174,0.20184,-0.77536,-0.52838,-0.49204,0.005959,0,0,-0.73663,-0.094477,0,0.030987,0,0,0.57361,-0.015519,0,0.57383,-0.52824,-0.7755,-0.49204,88.619,-0.59859,0.26721,-0.00091957,0.8,0.86,0
0.14352,-0.0062882,0.17887,-0.77617,-0.50891,-0.47496,0.0074704,0,0,-0.78315,-0.088273,0,0.038846,0,0,0.5751,-0.01784,0,0.57537,-0.5087,-0.77638,-0.47496,88.4,-0.58668,0.28604,-0.0011458,0.82,0.86,0
0.12738,-0.005798,0.15583,-0.77779,-0.48932,-0.45805,0.0087136,0,0,-0.83133,-0.081302,0,0.045311,0,0,0.57745,-0.020493,0,0.57781,-0.48906,-0.77805,-0.45805,88.271,-0.57505,0.30568,-0.0014162,0.84,0.86,0
0.11026,-0.0053786,0.13268,-0.78024,-0.46969,-0.44132,0.0094292,0,0,-0.8812,-0.07377,0,0.049032,0,0,0.581,-0.023336,0,0.58147,-0.46941,-0.78053,-0.44132,88.263,-0.56375,0.32608,-0.0017362,0.86,0.86,0
0.092133,-0.0050705,0.10935,-0.78332,-0.45027,-0.42475,0.0093439,0,0,-0.93228,-0.066339,0,0.048588,0,0,0.58611,-0.025967,0,0.58669,-0.45001,-0.78358,-0.42475,88.394,-0.55278,0.3469,-0.0021057,0.88,0.86,0
0.072973,-0.0049071,0.085788,-0.78677,-0.43171,-0.40844,0.0083115,0,0,-0.98367,-0.060498,0,0.04322,0,0,0.59288,-0.027525,0,0.59354,-0.43151,-0.78697,-0.40844,88.66,-0.54231,0.36754,-0.002516,0.9,0.86,0
0.052787,-0.0048908,0.061921,-0.79015,-0.41435,-0.39231,0.0065977,0,0,-1.0344,-0.057302,0,0.034308,0,0,0.60095,-0.026793,0,0.60157,-0.41423,-0.79026,-0.39231,88.995,-0.53227,0.38746,-0.0029552,0.92,0.86,0
0.031598,-0.0049717,0.037712,-0.79198,-0.42626,-0.39376,0.00387,0,0,-0.78255,-0.056336,0,0.01593,0,0,0.61127,-0.033929,0,0.61234,-0.42622,-0.79203,-0.39376,89.397,-0.53733,0.38321,-0.002826,0.94,0.86,0
0.021484,-0.0053542,0.025366,-0.79601,-0.45001,-0.39917,0.0010084,0,0,-0.51589,-0.06609,0,0.0026217,0,0,0.62389,-0.035457,0,0.62492,-0.45001,-0.79601,-0.39917,89.833,-0.5484,0.37402,-0.0025207,0.96,0.86,0
0.010962,-0.0056882,0.012756,-0.7968,-0.43948,-0.38364,1.1512e-05,0,0,-0.53711,-0.072589,0,2.9931e-05,0,0,0.63414,-0.019424,0,0.63441,-0.43948,-0.7968,-0.38364,89.998,-0.53997,0.38827,-0.0027977,0.98,0.86,0
0,-0.0058112,0,-0.78088,-0.41663,-0.35925,-0.0023657,0,0,-0.54812,-0.074588,0,-0.0061509,0,0,0.63782,-8.6736e-18,0,0.63777,-0.41661,-0.7809,-0.35925,-89.628,-0.51892,0.39609,-0.0029672,1,0.86,0
0,-0.017176,1,-0.97343,-1.7674,-1.8222,-0.014812,0,0,1.1035,0.07129,0,-0.038513,0,0,0.81494,-1.7616e-15,0,0.8149,-0.97315,-1.7677,-1.8222,-1.0684,-1.521,0.82317,0.028224,0,0.88,0
0.022069,-0.017946,0.9837,-0.95748,-1.7267,-1.789,-0.036821,0,0,1.0809,0.080966,0,-0.095733,0,0,0.81921,0.020304,0,0.81944,-0.95573,-1.7284,-1.789,-2.7344,-1.491,0.80467,0.026249,0.02,0.88,0
0.043236,-0.020219,0.96723,-0.97091,-1.6736,-1.7606,-0.070757,0,0,1.0266,0.11311,0,-0.18397,0,0,0.83096,0.036212,0,0.83178,-0.96386,-1.6806,-1.7606,-5.6935,-1.4684,0.7599,0.021698,0.04,0.88,0
0.063132,-0.023717,0.95046,-0.98944,-1.5936,-1.7254,-0.093957,0,0,0.95673,0.17128,0,-0.24429,0,0,0.8471,0.044363,0,0.84831,-0.97516,-1.6079,-1.7254,-8.6383,-1.4362,0.69892,0.015878,0.06,0.88,0
0.081505,-0.027808,0.93335,-1.0087,-1.5009,-1.6862,-0.09717,0,0,0.88079,0.24094,0,-0.25264,0,0,0.86354,0.043374,0,0.86467,-0.9902,-1.5194,-1.6862,-10.773,-1.3986,0.6294,0.0098363,0.08,0.88,0
0.098363,-0.031676,0.91592,-1.0259,-1.4238,-1.6508,-0.083303,0,0,0.81239,0.29517,0,-0.21659,0,0,0.87694,0.036385,0,0.8777,-1.0092,-1.4405,-1.6508,-11.361,-1.3668,0.56657,0.0051887,0.1,0.88,0
0.114,-0.034778,0.89827,-1.0366,-1.3695,-1.6201,-0.062442,0,0,0.75855,0.32575,0,-0.16235,0,0,0.88594,0.027004,0,0.88635,-1.0253,-1.3809,-1.6201,-10.281,-1.3421,0.51841,0.0023682,0.12,0.88,0
0.12871,-0.036963,0.88048,-1.0407,-1.3313,-1.5921,-0.043428,0,0,0.71679,0.33901,0,-0.11291,0,0,0.8911,0.017993,0,0.89127,-1.0344,-1.3377,-1.5921,-8.3202,-1.3214,0.48362,0.0008778,0.14,0.88,0
0.14267,-0.038293,0.86263,-1.0406,-1.301,-1.5651,-0.028212,0,0,0.68189,0.34335,0,-0.073352,0,0,0.89352,0.0097395,0,0.89357,-1.0375,-1.304,-1.5651,-6.1125,-1.3022,0.45688,8.6374e-05,0.16,0.88,0
0.15598,-0.038885,0.84474,-1.0393,-1.2758,-1.5393,-0.016208,0,0,0.64996,0.34252,0,-0.04214,0,0,0.89408,0.0021511,0,0.89408,-1.0382,-1.2769,-1.5393,-3.9023,-1.2848,0.43411,-0.00034318,0.18,0.88,0
0.16867,-0.038827,0.82686,-1.0379,-1.2544,-1.5145,-0.0061494,0,0,0.61961,0.33826,0,-0.015988,0,0,0.89315,-0.0049846,0,0.89316,-1.0377,-1.2545,-1.5145,-1.6262,-1.2689,0.41348,-0.00056754,0.2,0.88,0
0.18077,-0.038174,0.80902,-1.0366,-1.2361,-1.4908,0.0031588,0,0,0.59054,0.3311,0,0.008213,0,0,0.89081,-0.011894,0,0.89089,-1.0365,-1.2362,-1.4908,0.90658,-1.2545,0.39441,-0.00065452,0.22,0.88,0
0.19229,-0.036941,0.79123,-1.0348,-1.2214,-1.4681,0.012829,0,0,0.56324,0.32073,0,0.033356,0,0,0.88684,-0.018789,0,0.88703,-1.0339,-1.2223,-1.4681,3.9159,-1.2414,0.37708,-0.00062542,0.24,0.88,0
0.2033,-0.035111,0.77354,-1.0316,-1.2111,-1.4464,0.02388,0,0,0.53914,0.30583,0,0.062088,0,0,0.88065,-0.025834,0,0.88104,-1.0285,-1.2143,-1.4464,7.4509,-1.2297,0.36261,-0.00046754,0.26,0.88,0
0.21386,-0.032644,0.756,-1.0242,-1.2074,-1.4255,0.036643,0,0,0.52168,0.28349,0,0.095271,0,0,0.8711,-0.033059,0,0.87174,-1.0171,-1.2145,-1.4255,10.9,-1.219,0.3537,-0.00013179,0.28,0.88,0
0.22416,-0.029541,0.7387,-1.0106,-1.2165,-1.4068,0.04943,0,0,0.51508,0.24741,0,0.12852,0,0,0.85654,-0.040014,0,0.85751,-0.99939,-1.2278,-1.4068,12.824,-1.2113,0.35374,0.00047258,0.3,0.88,0
0.23446,-0.025959,0.72174,-0.99062,-1.2428,-1.3918,0.055474,0,0,0.5215,0.19365,0,0.14423,0,0,0.83553,-0.043877,0,0.83677,-0.97895,-1.2545,-1.3918,11.873,-1.2084,0.36413,0.0013441,0.32,0.88,0
0.24502,-0.022314,0.70528,-0.9668,-1.2803,-1.3794,0.048151,0,0,0.5364,0.12882,0,0.12519,0,0,0.8079,-0.040905,0,0.80909,-0.95957,-1.2875,-1.3794,8.5374,-1.2088,0.38228,0.0023203,0.34,0.88,0
0.25592,-0.019154,0.68943,-0.93969,-1.3092,-1.3641,0.026953,0,0,0.55171,0.071394,0,0.070077,0,0,0.7746,-0.027856,0,0.77528,-0.93774,-1.3111,-1.3641,4.1504,-1.2043,0.40249,0.0031541,0.36,0.88,0
0.26709,-0.016788,0.67429,-0.91319,-1.3239,-1.3454,0.0014498,0,0,0.5619,0.027988,0,0.0037694,0,0,0.73677,-0.0066682,0,0.73702,-0.91318,-1.3239,-1.3454,0.20225,-1.1942,0.42188,0.0038227,0.38,0.88,0
0.27839,-0.015171,0.65996,-0.89002,-1.3277,-1.3253,-0.018894,0,0,0.56582,-0.0031405,0,-0.049125,0,0,0.69533,0.015312,0,0.6958,-0.88921,-1.3285,-1.3253,-2.4674,-1.181,0.43768,0.0043056,0.4,0.88,0
0.28972,-0.014061,0.64648,-0.85892,-1.078,-1.0659,-0.030522,0,0,0.25502,-0.020976,0,-0.12143,0,0,0.65751,0.022183,0,0.65815,-0.83806,-1.0989,-1.0659,-27.289,-1.001,0.25302,0.0022752,0.42,0.88,0
0.28859,-0.014824,0.62083,-0.83706,-0.84158,-0.81401,-0.031965,0,0,-0.059939,-0.071686,0,-0.16622,0,0,0.6316,0.01939,0,0.63198,-0.80727,-0.87136,-0.81401,-42.979,-0.83088,0.061003,-1.1182e-05,0.44,0.88,0
0.28733,-0.015444,0.59595,-0.82372,-0.83523,-0.79566,-0.028713,0,0,-0.072948,-0.10289,0,-0.14931,0,0,0.61448,0.018535,0,0.6148,-0.80019,-0.85876,-0.79566,-39.33,-0.8182,0.060961,-1.1419e-05,0.46,0.88,0
0.28568,-0.015798,0.57167,-0.81398,-0.82347,-0.77707,-0.024232,0,0,-0.095953,-0.12064,0,-0.12601,0,0,0.60169,0.014691,0,0.60189,-0.79403,-0.84342,-0.77707,-39.457,-0.80484,0.059701,-8.0281e-06,0.48,0.88,0
0.28349,-0.015909,0.54782,-0.80673,-0.80829,-0.75841,-0.020199,0,0,-0.12562,-0.12967,0,-0.10503,0,0,0.59286,0.010453,0,0.59296,-0.78729,-0.82772,-0.75841,-43.897,-0.79114,0.0603,-3.1949e-06,0.5,0.88,0
0.28065,-0.015828,0.52424,-0.8014,-0.79156,-0.74001,-0.016891,0,0,-0.15962,-0.13402,0,-0.087832,0,0,0.58693,0.0067004,0,0.58697,-0.77889,-0.81407,-0.74001,-53.126,-0.77766,0.064168,1.1686e-06,0.52,0.88,0
0.2771,-0.015609,0.50086,-0.79718,-0.77392,-0.72176,-0.014275,0,0,-0.19609,-0.13562,0,-0.074228,0,0,0.58287,0.0036125,0,0.58288,-0.76714,-0.80396,-0.72176,-64.585,-0.76429,0.071316,3.3351e-06,0.54,0.88,0
0.27281,-0.015291,0.47761,-0.79366,-0.7558,-0.70365,-0.01219,0,0,-0.23405,-0.1356,0,-0.063387,0,0,0.58,0.0011408,0,0.58,-0.75222,-0.79725,-0.70365,-73.611,-0.75104,0.081082,1.7904e-06,0.56,0.88,0
0.26774,-0.014905,0.45446,-0.7906,-0.73742,-0.68564,-0.010487,0,0,-0.27292,-0.13462,0,-0.054533,0,0,0.57788,-0.00082717,0,0.57788,-0.73542,-0.7926,-0.68564,-79.239,-0.73789,0.092704,-4.8824e-06,0.58,0.88,0
0.26189,-0.014469,0.43138,-0.78785,-0.71888,-0.66771,-0.0090359,0,0,-0.31236,-0.13303,0,-0.046987,0,0,0.57626,-0.0024102,0,0.57626,-0.71771,-0.78901,-0.66771,-82.659,-0.72481,0.10559,-1.8043e-05,0.6,0.88,0
0.25525,-0.013998,0.40836,-0.7853,-0.70025,-0.64985,-0.0077325,0,0,-0.35219,-0.13104,0,-0.040209,0,0,0.57497,-0.0037162,0,0.57498,-0.69955,-0.786,-0.64985,-84.848,-0.7118,0.11934,-3.9046e-05,0.62,0.88,0
0.2478,-0.013499,0.38539,-0.78293,-0.68156,-0.63204,-0.0064958,0,0,-0.39231,-0.12875,0,-0.033778,0,0,0.57392,-0.0048388,0,0.57394,-0.68114,-0.78334,-0.63204,-86.348,-0.69884,0.1337,-6.927e-05,0.64,0.88,0
0.23955,-0.012976,0.36245,-0.78069,-0.66283,-0.61428,-0.0052621,0,0,-0.43267,-0.12623,0,-0.027363,0,0,0.57304,-0.00586,0,0.57307,-0.66259,-0.78093,-0.61428,-87.449,-0.68593,0.14851,-0.00011015,0.66,0.88,0
0.2305,-0.012432,0.33954,-0.7786,-0.64407,-0.59657,-0.0039799,0,0,-0.47327,-0.1235,0,-0.020695,0,0,0.5723,-0.0068536,0,0.57234,-0.64395,-0.77871,-0.59657,-88.307,-0.67308,0.16368,-0.00016322,0.68,0.88,0
0.22062,-0.011868,0.31666,-0.77665,-0.62528,-0.57891,-0.002606,0,0,-0.51411,-0.12057,0,-0.013551,0,0,0.57169,-0.0078892,0,0.57174,-0.62524,-0.77669,-0.57891,-89.014,-0.66028,0.17917,-0.00023015,0.7,0.88,0
0.20993,-0.011283,0.29381,-0.77487,-0.60646,-0.5613,-0.0011034,0,0,-0.55527,-0.11741,0,-0.0057375,0,0,0.57119,-0.0090364,0,0.57127,-0.60645,-0.77488,-0.5613,-89.625,-0.64754,0.19496,-0.00031287,0.72,0.88,0
0.19841,-0.010679,0.27097,-0.77331,-0.58759,-0.54375,0.00055975,0,0,-0.59685,-0.11398,0,0.0029107,0,0,0.57084,-0.010368,0,0.57093,-0.58759,-0.77331,-0.54375,89.827,-0.63489,0.21108,-0.00041369,0.74,0.88,0
0.18606,-0.010054,0.24814,-0.77205,-0.56865,-0.52628,0.0024077,0,0,-0.63901,-0.11016,0,0.01252,0,0,0.57066,-0.011966,0,0.57079,-0.56862,-0.77208,-0.52628,89.322,-0.62233,0.2276,-0.0005356,0.76,0.88,0
0.17285,-0.0094126,0.22531,-0.77121,-0.5496,-0.5089,0.0044515,0,0,-0.682,-0.10582,0,0.023148,0,0,0.57074,-0.013922,0,0.57091,-0.54951,-0.7713,-0.5089,88.85,-0.60991,0.24463,-0.0006826,0.78,0.88,0
0.15878,-0.0087585,0.20248,-0.77095,-0.53039,-0.49164,0.0066769,0,0,-0.72621,-0.10074,0,0.03472,0,0,0.57118,-0.016338,0,0.57141,-0.5302,-0.77114,-0.49164,88.411,-0.59766,0.26235,-0.00086025,0.8,0.88,0
0.1438,-0.0081024,0.17962,-0.77152,-0.51095,-0.47455,0.0090211,0,0,-0.77213,-0.094625,0,0.04691,0,0,0.57219,-0.019327,0,0.57251,-0.51063,-0.77184,-0.47455,88.02,-0.58567,0.28099,-0.0010763,0.82,0.88,0
0.12789,-0.0074634,0.15671,-0.77323,-0.49121,-0.45768,0.011332,0,0,-0.82041,-0.08716,0,0.058926,0,0,0.57411,-0.022988,0,0.57456,-0.49075,-0.77368,-0.45768,87.703,-0.57404,0.30083,-0.0013415,0.84,0.88,0
0.11099,-0.0068746,0.13369,-0.77637,-0.47113,-0.4411,0.013318,0,0,-0.8717,-0.078089,0,0.069254,0,0,0.57747,-0.027351,0,0.57811,-0.47055,-0.77695,-0.4411,87.506,-0.56286,0.32214,-0.0016686,0.86,0.88,0
0.093024,-0.0063866,0.11051,-0.78112,-0.45084,-0.42484,0.014468,0,0,-0.92634,-0.067582,0,0.075233,0,0,0.58308,-0.032213,0,0.58398,-0.4502,-0.78176,-0.42484,87.497,-0.55227,0.34493,-0.0020694,0.88,0.88,0
0.073934,-0.0060721,0.087046,-0.78679,-0.43054,-0.40872,0.014277,0,0,-0.98297,-0.056734,0,0.074239,0,0,0.59169,-0.036672,0,0.59284,-0.42997,-0.78736,-0.40872,87.709,-0.54202,0.36847,-0.0025406,0.9,0.88,0
0.053706,-0.0059622,0.063174,-0.79345,-0.41239,-0.39334,0.012483,0,0,-1.0403,-0.049528,0,0.064911,0,0,0.60319,-0.038142,0,0.60443,-0.41198,-0.79386,-0.39334,88.126,-0.53306,0.39153,-0.0030591,0.92,0.88,0
0.032323,-0.0060014,0.038791,-0.7979,-0.42048,-0.39461,0.0095667,0,0,-0.79156,-0.044853,0,0.037996,0,0,0.61914,-0.051113,0,0.62154,-0.42024,-0.79814,-0.39461,88.55,-0.53766,0.39143,-0.00304,0.94,0.88,0
0.022043,-0.0066203,0.026217,-0.80794,-0.44882,-0.40325,0.0059833,0,0,-0.5261,-0.059253,0,0.015557,0,0,0.63919,-0.053774,0,0.64149,-0.44872,-0.80804,-0.40325,89.046,-0.55334,0.38408,-0.0027728,0.96,0.88,0
0.011279,-0.0070919,0.013223,-0.812,-0.43758,-0.3881,0.0038811,0,0,-0.55108,-0.064322,0,0.010091,0,0,0.65542,-0.029375,0,0.65601,-0.43754,-0.81204,-0.3881,89.406,-0.54589,0.40152,-0.0031553,0.98,0.88,0
0,-0.0072532,0,-0.79608,-0.41153,-0.36228,-0.0031021,0,0,-0.56394,-0.064023,0,-0.0080655,0,0,0.66117,1.7347e-18,0,0.66106,-0.41151,-0.79611,-0.36228,-89.538,-0.5233,0.41142,-0.0034048,1,0.88,0
0,-0.015392,1,-0.98119,-1.7344,-1.8147,-0.011119,0,0,1.0835,0.10439,0,-0.02891,0,0,0.8306,1.2668e-15,0,0.83059,-0.98102,-1.7345,-1.8147,-0.84562,-1.5101,0.7966,0.025079,0,0.9,0
0.02167,-0.01597,0.98339,-0.96421,-1.6936,-1.7807,-0.028798,0,0,1.0615,0.1133,0,-0.074874,0,0,0.83324,0.012797,0,0.83333,-0.96308,-1.6947,-1.7807,-2.2576,-1.4795,0.77821,0.023211,0.02,0.9,0
0.042459,-0.017638,0.96667,-0.97481,-1.6444,-1.7524,-0.054051,0,0,1.0109,0.14043,0,-0.14053,0,0,0.8405,0.023009,0,0.84082,-0.97048,-1.6487,-1.7524,-4.5854,-1.4572,0.73562,0.019083,0.04,0.9,0
0.062107,-0.020157,0.94977,-0.99035,-1.5798,-1.7208,-0.070754,0,0,0.94961,0.18328,0,-0.18396,0,0,0.85068,0.02875,0,0.85118,-0.98198,-1.5882,-1.7208,-6.7493,-1.4303,0.68227,0.014257,0.06,0.9,0
0.080443,-0.02311,0.93264,-1.0075,-1.5082,-1.6874,-0.075333,0,0,0.88383,0.23287,0,-0.19587,0,0,0.86158,0.029565,0,0.86211,-0.9964,-1.5193,-1.6874,-8.373,-1.401,0.62414,0.0095024,0.08,0.9,0
0.09746,-0.026009,0.91531,-1.0232,-1.4422,-1.6549,-0.068503,0,0,0.82122,0.27656,0,-0.17811,0,0,0.8713,0.026378,0,0.87171,-1.0123,-1.4531,-1.6549,-9.054,-1.3734,0.56921,0.0056146,0.1,0.9,0
0.11329,-0.028477,0.89779,-1.035,-1.3885,-1.6248,-0.055301,0,0,0.76676,0.30728,0,-0.14378,0,0,0.87875,0.02092,0,0.879,-1.0266,-1.3969,-1.6248,-8.6881,-1.3495,0.52298,0.002927,0.12,0.9,0
0.12813,-0.030324,0.88016,-1.042,-1.3465,-1.5967,-0.040655,0,0,0.7211,0.32528,0,-0.1057,0,0,0.8837,0.014628,0,0.88382,-1.0367,-1.3518,-1.5967,-7.4759,-1.3284,0.48627,0.001271,0.14,0.9,0
0.14214,-0.031518,0.86244,-1.0452,-1.3132,-1.57,-0.027388,0,0,0.68218,0.33381,0,-0.07121,0,0,0.88646,0.0083198,0,0.8865,-1.0424,-1.3159,-1.57,-5.7763,-1.3094,0.45696,0.00031362,0.16,0.9,0
0.15542,-0.032094,0.8447,-1.046,-1.2859,-1.5443,-0.016085,0,0,0.64772,0.33592,0,-0.041821,0,0,0.88741,0.0022561,0,0.88741,-1.0449,-1.2869,-1.5443,-3.8196,-1.292,0.43249,-0.00022073,0.18,0.9,0
0.16804,-0.032106,0.82695,-1.0455,-1.2632,-1.5196,-0.0063308,0,0,0.61625,0.33325,0,-0.01646,0,0,0.8868,-0.0035159,0,0.8868,-1.0454,-1.2634,-1.5196,-1.6644,-1.2761,0.41113,-0.00049476,0.2,0.9,0
0.18007,-0.031594,0.80922,-1.0441,-1.2448,-1.4959,0.002603,0,0,0.5873,0.32648,0,0.0067679,0,0,0.88467,-0.0090089,0,0.88472,-1.0441,-1.2448,-1.4959,0.74318,-1.2616,0.39209,-0.00059359,0.22,0.9,0
0.19154,-0.030579,0.79156,-1.0414,-1.2306,-1.4732,0.011398,0,0,0.56123,0.31539,0,0.029635,0,0,0.88089,-0.014203,0,0.881,-1.0408,-1.2312,-1.4732,3.4369,-1.2484,0.37535,-0.00055493,0.24,0.9,0
0.20252,-0.029071,0.77399,-1.0366,-1.2215,-1.4514,0.020377,0,0,0.53923,0.29893,0,0.05298,0,0,0.87504,-0.018952,0,0.87525,-1.0344,-1.2237,-1.4514,6.2168,-1.2365,0.36165,-0.00038597,0.26,0.9,0
0.21311,-0.027087,0.75656,-1.0285,-1.2194,-1.4309,0.028991,0,0,0.52314,0.27499,0,0.075378,0,0,0.86652,-0.022809,0,0.86684,-1.0242,-1.2237,-1.4309,8.4481,-1.2263,0.35225,-7.381e-05,0.28,0.9,0
0.22344,-0.024696,0.73933,-1.0162,-1.2264,-1.4121,0.034943,0,0,0.51467,0.24142,0,0.090851,0,0,0.85461,-0.024656,0,0.85499,-1.0106,-1.2321,-1.4121,9.1957,-1.2182,0.34837,0.00038572,0.3,0.9,0
0.23369,-0.022076,0.72237,-1.0001,-1.2427,-1.3952,0.034494,0,0,0.51363,0.19826,0,0.089686,0,0,0.83876,-0.022551,0,0.83911,-0.99532,-1.2475,-1.3952,7.9375,-1.2127,0.35025,0.00095841,0.32,0.9,0
0.24399,-0.019525,0.70578,-0.98114,-1.2635,-1.3792,0.024038,0,0,0.51744,0.15037,0,0.062498,0,0,0.81869,-0.013949,0,0.81887,-0.97911,-1.2655,-1.3792,4.8313,-1.2079,0.35707,0.0015648,0.34,0.9,0
0.25439,-0.017386,0.68963,-0.95935,-1.2811,-1.3618,0.0032596,0,0,0.52313,0.10487,0,0.008475,0,0,0.79378,0.0033229,0,0.79384,-0.95932,-1.2811,-1.3618,0.5804,-1.2007,0.36879,0.0021667,0.36,0.9,0
0.26491,-0.015927,0.67403,-0.93022,-1.2915,-1.3405,-0.023136,0,0,0.53343,0.063722,0,-0.060153,0,0,0.76031,0.030381,0,0.76099,-0.92874,-1.293,-1.3405,-3.6489,-1.1874,0.39022,0.0028995,0.38,0.9,0
0.27573,-0.015047,0.65921,-0.90386,-1.3107,-1.3236,-0.046826,0,0,0.54563,0.016756,0,-0.12175,0,0,0.71485,0.065789,0,0.71835,-0.89854,-1.316,-1.3236,-6.4819,-1.1794,0.4213,0.0038365,0.4,0.9,0
0.28674,-0.014395,0.64543,-0.86604,-1.0772,-1.067,-0.053086,0,0,0.24733,-0.017577,0,-0.20564,0,0,0.66671,0.063037,0,0.67038,-0.83279,-1.1104,-1.067,-27.994,-1.0034,0.26629,0.0021707,0.42,0.9,0
0.28562,-0.016335,0.61966,-0.83669,-0.84863,-0.81543,-0.049399,0,0,-0.055296,-0.086332,0,-0.25687,0,0,0.63154,0.04395,0,0.63323,-0.7929,-0.89242,-0.81543,-41.555,-0.83358,0.090385,-3.0133e-05,0.44,0.9,0
0.28453,-0.017623,0.59491,-0.82051,-0.84388,-0.79677,-0.039705,0,0,-0.061723,-0.12248,0,-0.20647,0,0,0.60967,0.034075,0,0.61066,-0.7908,-0.87358,-0.79677,-36.802,-0.82039,0.079961,-2.5765e-05,0.46,0.9,0
0.28315,-0.018336,0.57088,-0.80885,-0.82935,-0.7769,-0.031371,0,0,-0.083051,-0.13638,0,-0.16313,0,0,0.59554,0.024234,0,0.59604,-0.78609,-0.85211,-0.7769,-35.949,-0.80503,0.071054,-1.7389e-05,0.48,0.9,0
0.2812,-0.018605,0.54727,-0.80213,-0.81278,-0.75811,-0.025019,0,0,-0.11446,-0.14216,0,-0.1301,0,0,0.58748,0.016491,0,0.58771,-0.78187,-0.83303,-0.75811,-38.99,-0.791,0.06632,-8.7535e-06,0.5,0.9,0
0.27857,-0.018592,0.52389,-0.79735,-0.79486,-0.73961,-0.020452,0,0,-0.15014,-0.14366,0,-0.10635,0,0,0.58264,0.010677,0,0.58273,-0.77562,-0.8166,-0.73961,-46.744,-0.77727,0.066722,-1.7012e-06,0.52,0.9,0
0.2752,-0.018388,0.50065,-0.79372,-0.77641,-0.72137,-0.017099,0,0,-0.18812,-0.14311,0,-0.088914,0,0,0.57954,0.0063572,0,0.57957,-0.7659,-0.80423,-0.72137,-58.425,-0.76383,0.07183,2.4604e-06,0.54,0.9,0
0.27105,-0.018058,0.47752,-0.79068,-0.75774,-0.70329,-0.014587,0,0,-0.22723,-0.14158,0,-0.075854,0,0,0.57742,0.0031337,0,0.57743,-0.75221,-0.79621,-0.70329,-69.235,-0.75057,0.080513,2.4538e-06,0.56,0.9,0
0.26611,-0.017643,0.45446,-0.78796,-0.739,-0.68532,-0.012624,0,0,-0.26687,-0.13958,0,-0.065646,0,0,0.57587,0.00069594,0,0.57587,-0.73594,-0.79102,-0.68532,-76.359,-0.73743,0.09157,-2.8825e-06,0.58,0.9,0
0.26037,-0.017171,0.43145,-0.78541,-0.72025,-0.66743,-0.011003,0,0,-0.30676,-0.13735,0,-0.057218,0,0,0.57466,-0.0011891,0,0.57466,-0.71844,-0.78722,-0.66743,-80.669,-0.72436,0.10412,-1.4689e-05,0.6,0.9,0
0.25384,-0.016657,0.40849,-0.78297,-0.70151,-0.64959,-0.0095787,0,0,-0.34678,-0.135,0,-0.049809,0,0,0.57365,-0.0026961,0,0.57365,-0.7004,-0.78408,-0.64959,-83.382,-0.71135,0.11762,-3.4117e-05,0.62,0.9,0
0.2465,-0.016111,0.38556,-0.78059,-0.68279,-0.63179,-0.0082453,0,0,-0.38686,-0.13259,0,-0.042876,0,0,0.57277,-0.0039586,0,0.57278,-0.6821,-0.78128,-0.63179,-85.214,-0.69839,0.13174,-6.2349e-05,0.64,0.9,0
0.23836,-0.015538,0.36267,-0.77826,-0.66409,-0.61404,-0.0069247,0,0,-0.42698,-0.13013,0,-0.036009,0,0,0.57197,-0.0050835,0,0.57199,-0.66367,-0.77868,-0.61404,-86.542,-0.68546,0.14628,-0.0001006,0.66,0.9,0
0.22942,-0.014942,0.3398,-0.77599,-0.64541,-0.59632,-0.0055538,0,0,-0.46713,-0.12763,0,-0.02888,0,0,0.57123,-0.006161,0,0.57126,-0.64517,-0.77622,-0.59632,-87.569,-0.67257,0.16113,-0.00015015,0.68,0.9,0
0.21968,-0.014322,0.31697,-0.77377,-0.62674,-0.57864,-0.0040774,0,0,-0.50735,-0.12507,0,-0.021203,0,0,0.57054,-0.0072732,0,0.57058,-0.62663,-0.77388,-0.57864,-88.413,-0.65972,0.17622,-0.00021237,0.7,0.9,0
0.20913,-0.013679,0.29416,-0.77163,-0.60808,-0.561,-0.0024431,0,0,-0.54766,-0.12243,0,-0.012704,0,0,0.56989,-0.0085014,0,0.56995,-0.60805,-0.77167,-0.561,-89.144,-0.6469,0.19153,-0.00028878,0.72,0.9,0
0.19777,-0.013012,0.27138,-0.76962,-0.58942,-0.5434,-0.00059761,0,0,-0.58817,-0.11965,0,-0.0031076,0,0,0.56929,-0.009933,0,0.56938,-0.58942,-0.76962,-0.5434,-89.81,-0.63415,0.20708,-0.00038125,0.74,0.9,0
0.1856,-0.012318,0.24862,-0.76779,-0.57073,-0.52586,0.0015153,0,0,-0.62901,-0.11665,0,0.0078797,0,0,0.56877,-0.011669,0,0.56889,-0.57071,-0.7678,-0.52586,89.559,-0.62146,0.22292,-0.00049222,0.76,0.9,0
0.17261,-0.011596,0.22587,-0.76626,-0.55196,-0.5084,0.0039543,0,0,-0.67043,-0.11324,0,0.020562,0,0,0.56838,-0.013834,0,0.56855,-0.55189,-0.76634,-0.5084,88.943,-0.60888,0.23917,-0.00062513,0.78,0.9,0
0.15879,-0.010847,0.20315,-0.76523,-0.53305,-0.49106,0.0067748,0,0,-0.71285,-0.10919,0,0.035229,0,0,0.56821,-0.016585,0,0.56845,-0.53286,-0.76543,-0.49106,88.33,-0.59645,0.25604,-0.00078521,0.8,0.9,0
0.1441,-0.010073,0.18042,-0.76499,-0.51391,-0.47388,0.010013,0,0,-0.75688,-0.10408,0,0.052069,0,0,0.56845,-0.020127,0,0.5688,-0.51351,-0.76538,-0.47388,87.72,-0.58426,0.27385,-0.0009807,0.82,0.9,0
0.12851,-0.0092844,0.15767,-0.76601,-0.4944,-0.45696,0.013653,0,0,-0.80353,-0.097357,0,0.070996,0,0,0.56942,-0.024725,0,0.56995,-0.49372,-0.76669,-0.45696,87.129,-0.57246,0.29309,-0.0012247,0.84,0.9,0
0.11196,-0.0085021,0.13487,-0.76902,-0.47439,-0.44046,0.017537,0,0,-0.85426,-0.088236,0,0.091192,0,0,0.57178,-0.030703,0,0.5726,-0.47335,-0.77006,-0.44046,86.606,-0.56129,0.31445,-0.0015381,0.86,0.9,0
0.09434,-0.0077738,0.11193,-0.77495,-0.45373,-0.42457,0.021272,0,0,-0.91099,-0.075824,0,0.11061,0,0,0.57678,-0.038383,0,0.57806,-0.45233,-0.77635,-0.42457,86.228,-0.55108,0.33875,-0.0019514,0.88,0.9,0
0.075518,-0.0071764,0.088722,-0.78489,-0.43265,-0.40963,0.023772,0,0,-0.9757,-0.059875,0,0.12361,0,0,0.58696,-0.047764,0,0.58891,-0.43106,-0.78649,-0.40963,86.156,-0.54239,0.36662,-0.0025017,0.9,0.9,0
0.055312,-0.0068719,0.064972,-0.79549,-0.40995,-0.39412,0.024357,0,0,-1.0436,-0.041163,0,0.12666,0,0,0.60355,-0.056588,0,0.6063,-0.40842,-0.79702,-0.39412,86.399,-0.53318,0.39595,-0.0031741,0.92,0.9,0
0.033776,-0.0067658,0.040438,-0.80811,-0.4161,-0.39759,0.021446,0,0,-0.80288,-0.032087,0,0.083217,0,0,0.62971,-0.07965,0,0.63543,-0.41493,-0.80928,-0.39759,86.875,-0.5406,0.40333,-0.0033491,0.94,0.9,0
0.023197,-0.0077243,0.027517,-0.83047,-0.4501,-0.41169,0.0215,0,0,-0.54442,-0.049933,0,0.0559,0,0,0.66267,-0.084571,0,0.66818,-0.44889,-0.83169,-0.41169,86.775,-0.56409,0.40269,-0.0032574,0.96,0.9,0
0.011999,-0.0082611,0.013931,-0.83965,-0.42575,-0.39355,0.013683,0,0,-0.57993,-0.04186,0,0.035575,0,0,0.68792,-0.041778,0,0.68899,-0.4253,-0.84011,-0.39355,88.109,-0.55299,0.43156,-0.0040527,0.98,0.9,0
0,-0.0083721,0,-0.82976,-0.39778,-0.36826,-0.0021355,0,0,-0.59995,-0.038371,0,-0.0055522,0,0,0.69657,-1.0408e-17,0,0.69636,-0.39777,-0.82977,-0.36826,-89.717,-0.53193,0.44749,-0.0045347,1,0.9,0
0,-0.013,1,-0.98917,-1.7082,-1.8092,-0.0079569,0,0,1.066,0.13133,0,-0.020688,0,0,0.84054,3.5336e-15,0,0.84053,-0.98908,-1.7083,-1.8092,-0.63395,-1.5022,0.77461,0.02251,0,0.92,0
0.021321,-0.013414,0.98319,-0.97112,-1.6683,-1.775,-0.02139,0,0,1.0451,0.13874,0,-0.055614,0,0,0.84222,0.0081143,0,0.84226,-0.97046,-1.6689,-1.775,-1.7557,-1.4715,0.75711,0.020822,0.02,0.92,0
0.041802,-0.014601,0.96631,-0.97972,-1.6242,-1.7475,-0.039803,0,0,0.99811,0.16026,0,-0.10349,0,0,0.84692,0.014736,0,0.84705,-0.97727,-1.6267,-1.7475,-3.5206,-1.4505,0.71748,0.01717,0.04,0.92,0
0.061245,-0.016386,0.94931,-0.99261,-1.5696,-1.718,-0.052186,0,0,0.94299,0.19285,0,-0.13568,0,0,0.85365,0.0188,0,0.85387,-0.98793,-1.5743,-1.718,-5.1263,-1.4267,0.66988,0.013077,0.06,0.92,0
0.079522,-0.018493,0.93217,-1.0074,-1.5101,-1.6874,-0.056615,0,0,0.88401,0.23049,0,-0.1472,0,0,0.86117,0.019943,0,0.86141,-1.0011,-1.5164,-1.6874,-6.3468,-1.4017,0.61879,0.0091082,0.08,0.92,0
0.096606,-0.020614,0.91487,-1.0217,-1.4526,-1.6572,-0.053503,0,0,0.82607,0.26594,0,-0.13911,0,0,0.86829,0.018522,0,0.8685,-1.0152,-1.4591,-1.6572,-6.9737,-1.3772,0.56941,0.0057609,0.1,0.92,0
0.11256,-0.022487,0.89743,-1.0336,-1.4018,-1.628,-0.045242,0,0,0.77282,0.29411,0,-0.11763,0,0,0.8742,0.015312,0,0.87433,-1.0281,-1.4073,-1.628,-6.9027,-1.3545,0.52558,0.0032694,0.12,0.92,0
0.12752,-0.023952,0.8799,-1.042,-1.3592,-1.6003,-0.034795,0,0,0.72573,0.31335,0,-0.090467,0,0,0.8785,0.011136,0,0.87857,-1.0382,-1.363,-1.6003,-6.1868,-1.3338,0.48869,0.0015924,0.14,0.92,0
0.14159,-0.02494,0.86229,-1.0472,-1.3241,-1.5737,-0.024276,0,0,0.68446,0.32442,0,-0.063119,0,0,0.88115,0.0066,0,0.88117,-1.0451,-1.3262,-1.5737,-4.9718,-1.315,0.45811,0.00054442,0.16,0.92,0
0.1549,-0.025448,0.84465,-1.0497,-1.2952,-1.5481,-0.014665,0,0,0.64797,0.32877,0,-0.038129,0,0,0.88224,0.0020552,0,0.88224,-1.0488,-1.2961,-1.5481,-3.4059,-1.2977,0.43242,-6.8305e-05,0.18,0.92,0
0.16751,-0.025497,0.827,-1.0502,-1.2715,-1.5235,-0.0060794,0,0,0.61531,0.32758,0,-0.015806,0,0,0.88189,-0.0023161,0,0.88189,-1.05,-1.2717,-1.5235,-1.5721,-1.2818,0.41033,-0.00039035,0.2,0.92,0
0.17951,-0.025115,0.80938,-1.0491,-1.2526,-1.4999,0.0017348,0,0,0.58606,0.32145,0,0.0045104,0,0,0.88013,-0.0063859,0,0.88015,-1.0491,-1.2526,-1.4999,0.48827,-1.2672,0.39104,-0.00051236,0.22,0.92,0
0.19096,-0.024326,0.7918,-1.0462,-1.2384,-1.4772,0.0090241,0,0,0.56031,0.31038,0,0.023463,0,0,0.87689,-0.0099822,0,0.87695,-1.0457,-1.2389,-1.4772,2.6815,-1.2539,0.37431,-0.00048582,0.24,0.92,0
0.20192,-0.023154,0.7743,-1.0412,-1.2295,-1.4555,0.015686,0,0,0.5386,0.29384,0,0.040784,0,0,0.87205,-0.012781,0,0.87215,-1.0399,-1.2308,-1.4555,4.7302,-1.2421,0.36032,-0.00033772,0.26,0.92,0
0.2125,-0.021644,0.75692,-1.0337,-1.2264,-1.435,0.020891,0,0,0.5216,0.27111,0,0.054318,0,0,0.8654,-0.014155,0,0.86552,-1.0315,-1.2287,-1.435,6.1175,-1.2317,0.34945,-8.6036e-05,0.28,0.92,0
0.22279,-0.019884,0.73969,-1.0238,-1.2296,-1.4157,0.0229,0,0,0.50945,0.24195,0,0.059539,0,0,0.8568,-0.013024,0,0.85691,-1.0213,-1.2321,-1.4157,6.2739,-1.223,0.34184,0.00024447,0.3,0.92,0
0.23288,-0.018028,0.72264,-1.0121,-1.2378,-1.3976,0.019274,0,0,0.50116,0.20774,0,0.050112,0,0,0.84624,-0.0077597,0,0.84629,-1.0105,-1.2395,-1.3976,4.8459,-1.2159,0.33714,0.00061096,0.32,0.92,0
0.24283,-0.016299,0.70583,-0.99972,-1.2479,-1.3801,0.0077576,0,0,0.49454,0.17186,0,0.02017,0,0,0.83378,0.003774,0,0.83379,-0.99947,-1.2482,-1.3801,1.7884,-1.2093,0.33479,0.00096721,0.34,0.92,0
0.25266,-0.014959,0.68929,-0.98684,-1.2559,-1.3621,-0.012817,0,0,0.48785,0.13808,0,-0.033325,0,0,0.81893,0.024259,0,0.81925,-0.98624,-1.2565,-1.3621,-2.7212,-1.2016,0.33577,0.0013156,0.36,0.92,0
0.26235,-0.014239,0.67308,-0.97055,-1.2603,-1.3423,-0.044624,0,0,0.48331,0.10664,0,-0.11602,0,0,0.79924,0.057547,0,0.80116,-0.96384,-1.267,-1.3423,-8.5599,-1.1911,0.34702,0.0018102,0.38,0.92,0
0.27199,-0.014501,0.65732,-0.91512,-1.2545,-1.3082,-0.079727,0,0,0.511,0.069869,0,-0.20729,0,0,0.749,0.11134,0,0.75652,-0.89732,-1.2723,-1.3082,-12.585,-1.1592,0.39413,0.0030565,0.4,0.92,0
0.28279,-0.014764,0.64312,-0.87648,-1.0896,-1.0722,-0.10256,0,0,0.23891,-0.03023,0,-0.38265,0,0,0.6777,0.15358,0,0.69851,-0.81433,-1.1517,-1.0722,-30.445,-1.0128,0.31401,0.0025595,0.42,0.92,0
0.28155,-0.018277,0.61731,-0.84044,-0.87709,-0.82391,-0.071916,0,0,-0.042959,-0.13825,0,-0.37396,0,0,0.62365,0.072752,0,0.62788,-0.78455,-0.93298,-0.82391,-37.852,-0.84715,0.13318,-8.6544e-05,0.44,0.92,0
0.28107,-0.020343,0.59323,-0.81016,-0.85632,-0.79656,-0.051224,0,0,-0.035369,-0.15539,0,-0.26637,0,0,0.59476,0.047646,0,0.59663,-0.77706,-0.88943,-0.79656,-32.872,-0.82101,0.104,-5.0992e-05,0.46,0.92,0
0.28013,-0.021253,0.56973,-0.80089,-0.83818,-0.77659,-0.037203,0,0,-0.063186,-0.16014,0,-0.19346,0,0,0.5841,0.031407,0,0.58493,-0.77792,-0.86115,-0.77659,-31.691,-0.80522,0.083902,-3.0309e-05,0.48,0.92,0
0.27854,-0.021596,0.5465,-0.79545,-0.81854,-0.75745,-0.028701,0,0,-0.098821,-0.15883,0,-0.14924,0,0,0.5793,0.020575,0,0.57965,-0.77606,-0.83793,-0.75745,-34.047,-0.79048,0.072979,-1.5669e-05,0.5,0.92,0
0.27618,-0.021574,0.52339,-0.79213,-0.79882,-0.73898,-0.023039,0,0,-0.1382,-0.15558,0,-0.1198,0,0,0.57679,0.013188,0,0.57694,-0.77219,-0.81875,-0.73898,-40.872,-0.77664,0.069408,-4.8923e-06,0.52,0.92,0
0.27301,-0.021333,0.50035,-0.78958,-0.77922,-0.72082,-0.019215,0,0,-0.17877,-0.15186,0,-0.099918,0,0,0.57533,0.0080381,0,0.57538,-0.7645,-0.8043,-0.72082,-52.537,-0.76321,0.072325,1.5638e-06,0.54,0.92,0
0.26903,-0.020954,0.47736,-0.78729,-0.75985,-0.70282,-0.016498,0,0,-0.21961,-0.14827,0,-0.085792,0,0,0.57433,0.0043672,0,0.57435,-0.75211,-0.79503,-0.70282,-64.871,-0.74999,0.079914,3.1307e-06,0.56,0.92,0
0.26423,-0.020488,0.45441,-0.78505,-0.74069,-0.68493,-0.014454,0,0,-0.26034,-0.14498,0,-0.075159,0,0,0.57356,0.0016854,0,0.57356,-0.73639,-0.78935,-0.68493,-73.458,-0.73689,0.090436,-9.3766e-07,0.58,0.92,0
0.25861,-0.019963,0.43148,-0.7828,-0.72169,-0.66709,-0.012803,0,0,-0.30085,-0.14197,0,-0.066575,0,0,0.57287,-0.00033301,0,0.57287,-0.71911,-0.78537,-0.66709,-78.633,-0.72386,0.10269,-1.1486e-05,0.6,0.92,0
0.25219,-0.019398,0.40858,-0.78049,-0.70282,-0.64928,-0.011371,0,0,-0.34114,-0.1392,0,-0.059128,0,0,0.5722,-0.0019117,0,0.57221,-0.70119,-0.78212,-0.64928,-81.84,-0.71086,0.11596,-2.9437e-05,0.62,0.92,0
0.24497,-0.018802,0.3857,-0.77813,-0.68406,-0.63151,-0.010039,0,0,-0.38122,-0.13663,0,-0.052202,0,0,0.57153,-0.0032109,0,0.57154,-0.683,-0.77919,-0.63151,-83.976,-0.6979,0.12984,-5.5763e-05,0.64,0.92,0
0.23694,-0.018181,0.36285,-0.77572,-0.66538,-0.61376,-0.0087228,0,0,-0.42111,-0.13422,0,-0.045358,0,0,0.57084,-0.004352,0,0.57086,-0.6647,-0.77641,-0.61376,-85.508,-0.68495,0.1441,-9.1451e-05,0.66,0.92,0
0.22812,-0.017537,0.34003,-0.77326,-0.64678,-0.59603,-0.0073545,0,0,-0.4608,-0.13196,0,-0.038243,0,0,0.57012,-0.0054335,0,0.57014,-0.64636,-0.77369,-0.59603,-86.683,-0.67202,0.1586,-0.00013749,0.68,0.92,0
0.21851,-0.016871,0.31725,-0.77075,-0.62825,-0.57832,-0.0058729,0,0,-0.50031,-0.12982,0,-0.030539,0,0,0.56935,-0.0065432,0,0.56939,-0.62801,-0.77099,-0.57832,-87.644,-0.65911,0.17325,-0.00019489,0.7,0.92,0
0.20811,-0.016181,0.29449,-0.7682,-0.60979,-0.56064,-0.0042162,0,0,-0.53966,-0.12778,0,-0.021924,0,0,0.56853,-0.0077674,0,0.56859,-0.60967,-0.76831,-0.56064,-88.477,-0.64621,0.18801,-0.00026468,0.72,0.92,0
0.19693,-0.015465,0.27176,-0.76563,-0.59137,-0.54298,-0.0023152,0,0,-0.57888,-0.12582,0,-0.012039,0,0,0.56767,-0.0092003,0,0.56775,-0.59134,-0.76566,-0.54298,-89.239,-0.63333,0.20287,-0.00034805,0.74,0.92,0
0.18496,-0.01472,0.24907,-0.76307,-0.573,-0.52536,-8.7374e-05,0,0,-0.61806,-0.12387,0,-0.00045434,0,0,0.56676,-0.010955,0,0.56687,-0.573,-0.76307,-0.52536,-89.974,-0.62048,0.21784,-0.00044651,0.76,0.92,0
0.1722,-0.013942,0.22642,-0.76061,-0.55464,-0.50779,0.0025705,0,0,-0.65734,-0.12182,0,0.013366,0,0,0.56582,-0.013175,0,0.56597,-0.55461,-0.76064,-0.50779,89.285,-0.60768,0.233,-0.00056225,0.78,0.92,0
0.15866,-0.013126,0.20381,-0.75836,-0.53624,-0.49028,0.0057884,0,0,-0.697,-0.11948,0,0.0301,0,0,0.56488,-0.016061,0,0.56511,-0.53609,-0.75851,-0.49028,88.508,-0.59496,0.24851,-0.00069887,0.8,0.92,0
0.14432,-0.012266,0.18123,-0.75658,-0.5177,-0.4729,0.0097282,0,0,-0.73757,-0.11649,0,0.050587,0,0,0.56405,-0.019894,0,0.5644,-0.51731,-0.75698,-0.4729,87.672,-0.5824,0.26468,-0.00086269,0.82,0.92,0
0.12916,-0.011358,0.15868,-0.75573,-0.49891,-0.45573,0.014577,0,0,-0.77999,-0.11226,0,0.075799,0,0,0.56353,-0.025097,0,0.56408,-0.49808,-0.75655,-0.45573,86.762,-0.57012,0.28204,-0.0010652,0.84,0.92,0
0.11313,-0.010404,0.13615,-0.75665,-0.47968,-0.43897,0.020539,0,0,-0.82595,-0.10584,0,0.1068,0,0,0.56381,-0.032311,0,0.56472,-0.47816,-0.75816,-0.43897,85.782,-0.55843,0.30151,-0.0013279,0.86,0.92,0
0.096123,-0.0094196,0.11358,-0.76104,-0.45993,-0.42308,0.027701,0,0,-0.8787,-0.09581,0,0.14405,0,0,0.56602,-0.042558,0,0.5676,-0.45741,-0.76357,-0.42308,84.787,-0.54802,0.32469,-0.001692,0.88,0.92,0
0.077977,-0.0084671,0.090867,-0.77208,-0.43976,-0.40899,0.036244,0,0,-0.94405,-0.080018,0,0.18847,0,0,0.57348,-0.057494,0,0.57631,-0.43586,-0.77599,-0.40899,83.847,-0.54028,0.35433,-0.0022406,0.9,0.92,0
0.058361,-0.0076088,0.067701,-0.79907,-0.42238,-0.40029,0.044506,0,0,-1.0368,-0.057456,0,0.23143,0,0,0.59785,-0.080062,0,0.60317,-0.4172,-0.80425,-0.40029,83.352,-0.54058,0.39578,-0.0031645,0.92,0.92,0
0.036504,-0.0072848,0.043039,-0.82018,-0.41783,-0.40368,0.064841,0,0,-0.81467,-0.024518,0,0.23859,0,0,0.64425,-0.15809,0,0.66667,-0.40731,-0.8307,-0.40368,81.062,-0.54723,0.42522,-0.0039478,0.94,0.92,0
0.025774,-0.0086176,0.0296,-0.85866,-0.42062,-0.41338,0.050285,0,0,-0.57886,-0.0094054,0,0.13074,0,0,0.70361,-0.11485,0,0.71198,-0.41492,-0.86436,-0.41338,83.535,-0.56422,0.45021,-0.0046865,0.96,0.92,0
0.01335,-0.0087663,0.014894,-0.90264,-0.40431,-0.40698,0.029011,0,0,-0.64436,0.003469,0,0.075428,0,0,0.73999,-0.051645,0,0.74142,-0.40263,-0.90433,-0.40698,86.679,-0.57131,0.49954,-0.0064005,0.98,0.92,0
0,-0.0087881,0,-0.89422,-0.37503,-0.38077,-0.00041843,0,0,-0.66748,0.0074664,0,-0.0010879,0,0,0.74472,6.9389e-18,0,0.74443,-0.37503,-0.89422,-0.38077,-89.954,-0.55001,0.51634,-0.0070672,1,0.92,0
0,-0.010138,1,-0.99596,-1.6889,-1.8054,-0.0054208,0,0,1.0523,0.15155,0,-0.014094,0,0,0.84683,-3.6841e-16,0,0.84683,-0.99592,-1.6889,-1.8054,-0.4482,-1.4968,0.75801,0.020598,0,0.94,0
0.021047,-0.01042,0.98306,-0.97719,-1.6501,-1.7712,-0.014981,0,0,1.0323,0.15753,0,-0.03895,0,0,0.84797,0.0050744,0,0.84799,-0.97686,-1.6504,-1.7712,-1.2748,-1.4662,0.74139,0.019068,0.02,0.94,0
0.041291,-0.011228,0.96608,-0.98426,-1.61,-1.7444,-0.027861,0,0,0.98812,0.17468,0,-0.072438,0,0,0.85118,0.0092977,0,0.85123,-0.98303,-1.6112,-1.7444,-2.5444,-1.4462,0.70427,0.015801,0.04,0.94,0
0.060572,-0.012443,0.94902,-0.99516,-1.562,-1.7162,-0.0367,0,0,0.93731,0.2004,0,-0.095419,0,0,0.85589,0.012043,0,0.85598,-0.99279,-1.5644,-1.7162,-3.6889,-1.4244,0.66069,0.012218,0.06,0.94,0
0.078783,-0.01389,0.93185,-1.0081,-1.51,-1.6873,-0.040407,0,0,0.88297,0.23044,0,-0.10506,0,0,0.86131,0.013052,0,0.86141,-1.0048,-1.5132,-1.6873,-4.5731,-1.4018,0.6142,0.0087579,0.08,0.94,0
0.09589,-0.015371,0.91456,-1.0211,-1.4584,-1.6584,-0.039127,0,0,0.82854,0.26003,0,-0.10173,0,0,0.86667,0.012437,0,0.86676,-1.0176,-1.4619,-1.6584,-5.0727,-1.3793,0.56861,0.0057798,0.1,0.94,0
0.11192,-0.016712,0.89718,-1.0326,-1.4107,-1.6301,-0.03412,0,0,0.77686,0.28532,0,-0.088713,0,0,0.87136,0.01057,0,0.87143,-1.0295,-1.4137,-1.6301,-5.1154,-1.3578,0.52689,0.0034672,0.12,0.94,0
0.12696,-0.01779,0.87971,-1.0416,-1.3687,-1.6028,-0.027072,0,0,0.72957,0.30429,0,-0.070389,0,0,0.87499,0.0079028,0,0.87503,-1.0394,-1.371,-1.6028,-4.699,-1.3377,0.49049,0.0018232,0.14,0.94,0
0.14111,-0.018541,0.86218,-1.0479,-1.333,-1.5764,-0.019426,0,0,0.68714,0.31646,0,-0.050509,0,0,0.87738,0.0048366,0,0.87739,-1.0466,-1.3343,-1.5764,-3.8798,-1.3191,0.45946,0.00073998,0.16,0.94,0
0.15445,-0.018943,0.84461,-1.0515,-1.3032,-1.551,-0.012042,0,0,0.64932,0.32224,0,-0.031309,0,0,0.8785,0.0016651,0,0.8785,-1.051,-1.3037,-1.551,-2.734,-1.3019,0.43306,7.8682e-05,0.18,0.94,0
0.16708,-0.019003,0.82704,-1.0529,-1.2787,-1.5265,-0.0052524,0,0,0.61567,0.32222,0,-0.013656,0,0,0.87836,-0.0014039,0,0.87836,-1.0528,-1.2788,-1.5265,-1.3322,-1.286,0.41039,-0.00028212,0.2,0.94,0
0.17908,-0.018736,0.80948,-1.0522,-1.2592,-1.5029,0.00090311,0,0,0.58586,0.31685,0,0.0023481,0,0,0.87701,-0.0041904,0,0.87702,-1.0522,-1.2592,-1.5029,0.25005,-1.2714,0.39072,-0.00043143,0.22,0.94,0
0.19051,-0.018164,0.79196,-1.0496,-1.2446,-1.4802,0.0063982,0,0,0.55976,0.30633,0,0.016635,0,0,0.87449,-0.0064667,0,0.87452,-1.0494,-1.2448,-1.4802,1.8778,-1.2582,0.37362,-0.00042921,0.24,0.94,0
0.20147,-0.017317,0.7745,-1.0452,-1.2349,-1.4585,0.010958,0,0,0.53737,0.2907,0,0.028491,0,0,0.87087,-0.0078704,0,0.87091,-1.0445,-1.2355,-1.4585,3.2942,-1.2462,0.35888,-0.00031639,0.26,0.94,0
0.21201,-0.016242,0.75712,-1.039,-1.2301,-1.4378,0.013862,0,0,0.51853,0.2701,0,0.036042,0,0,0.86628,-0.0078058,0,0.86632,-1.0379,-1.2311,-1.4378,4.1274,-1.2356,0.34637,-0.00012625,0.28,0.94,0
0.22221,-0.015019,0.73985,-1.0316,-1.2295,-1.4182,0.013886,0,0,0.50257,0.24531,0,0.036105,0,0,0.86101,-0.0053413,0,0.86103,-1.0306,-1.2304,-1.4182,3.9945,-1.2264,0.33569,0.00010503,0.3,0.94,0
0.23211,-0.013767,0.72268,-1.024,-1.2316,-1.3994,0.0094802,0,0,0.48792,0.21813,0,0.024649,0,0,0.85556,0.00088327,0,0.85556,-1.0236,-1.232,-1.3994,2.61,-1.2183,0.32606,0.00033436,0.32,0.94,0
0.24172,-0.01265,0.70563,-1.018,-1.234,-1.3812,-0.00088843,0,0,0.47215,0.19145,0,-0.0023099,0,0,0.85071,0.012788,0,0.85078,-1.018,-1.234,-1.3812,-0.23575,-1.2111,0.3164,0.00052119,0.34,0.94,0
0.251,-0.011862,0.68866,-1.0157,-1.2339,-1.3635,-0.019026,0,0,0.45222,0.16849,0,-0.049469,0,0,0.84755,0.033199,0,0.84813,-1.014,-1.2356,-1.3635,-4.9451,-1.2044,0.30628,0.00065526,0.36,0.94,0
0.25981,-0.011661,0.67172,-1.0212,-1.2311,-1.3474,-0.046567,0,0,0.42406,0.15119,0,-0.12107,0,0,0.8474,0.067011,0,0.84982,-1.0114,-1.241,-1.3474,-11.963,-1.1999,0.29749,0.00079199,0.38,0.94,0
0.26796,-0.012252,0.65476,-1.0386,-1.2277,-1.3347,-0.10304,0,0,0.38485,0.139,0,-0.2679,0,0,0.86208,0.12507,0,0.87011,-0.99334,-1.273,-1.3347,-23.729,-1.2004,0.31507,0.0014014,0.4,0.94,0
0.27521,-0.015604,0.63724,-0.96587,-1.0255,-1.0754,-0.1607,0,0,0.15526,0.054242,0,-0.59082,0,0,0.77955,0.19523,0,0.80343,-0.83213,-1.1593,-1.0754,-39.953,-1.0223,0.30096,0.0012613,0.42,0.94,0
0.27624,-0.021865,0.61384,-1.0136,-0.90941,-1.0373,-0.10285,0,0,0.041002,0.12139,0,-0.38521,0,0,0.8652,0.088478,0,0.86974,-0.81831,-1.1047,-1.0373,-51.698,-0.98678,0.27202,0.0012243,0.44,0.94,0
0.27685,-0.023839,0.5911,-1.0018,-0.88021,-1.0079,-0.054555,0,0,0.010616,0.12233,0,-0.21256,0,0,0.85249,0.053234,0,0.85427,-0.82524,-1.0568,-1.0079,-54.394,-0.96332,0.22472,0.00091339,0.46,0.94,0
0.27667,-0.024741,0.56837,-1.0013,-0.85333,-0.98267,-0.037148,0,0,-0.032316,0.12455,0,-0.14691,0,0,0.85271,0.033312,0,0.85342,-0.81419,-1.0405,-0.98267,-55.828,-0.94577,0.21781,0.0010062,0.48,0.94,0
0.27556,-0.024959,0.54562,-1.0053,-0.83032,-0.9599,-0.026923,0,0,-0.078685,0.12642,0,-0.10777,0,0,0.85389,0.021195,0,0.85419,-0.80403,-1.0316,-0.9599,-58.005,-0.93183,0.21792,0.0010741,0.5,0.94,0
0.27352,-0.024815,0.52283,-1.0092,-0.8085,-0.93742,-0.021054,0,0,-0.12434,0.12709,0,-0.084896,0,0,0.85515,0.013405,0,0.85527,-0.7923,-1.0254,-0.93742,-61.863,-0.91836,0.22396,0.0010911,0.52,0.94,0
0.27058,-0.024463,0.50001,-1.0123,-0.78766,-0.915,-0.017372,0,0,-0.16868,0.12643,0,-0.07039,0,0,0.85608,0.008203,0,0.85612,-0.7788,-1.0212,-0.915,-68.239,-0.90499,0.23401,0.0010427,0.54,0.94,0
0.26677,-0.023989,0.47717,-1.0147,-0.76745,-0.89252,-0.014903,0,0,-0.21174,0.12465,0,-0.060584,0,0,0.8566,0.0046109,0,0.85662,-0.76286,-1.0193,-0.89252,-75.332,-0.89155,0.24678,0.00092966,0.56,0.94,0
0.26211,-0.023443,0.45433,-1.0164,-0.7477,-0.86996,-0.013094,0,0,-0.25376,0.12201,0,-0.053371,0,0,0.85676,0.0020495,0,0.85676,-0.74515,-1.0189,-0.86996,-80.323,-0.87801,0.26122,0.00075432,0.58,0.94,0
0.25662,-0.02285,0.43148,-1.0175,-0.72825,-0.84734,-0.011647,0,0,-0.29498,0.11874,0,-0.04759,0,0,0.85659,0.00015772,0,0.85659,-0.72669,-1.0191,-0.84734,-83.281,-0.86437,0.27668,0.00051832,0.6,0.94,0
0.25031,-0.022225,0.40864,-1.0183,-0.70902,-0.82467,-0.010389,0,0,-0.3356,0.11502,0,-0.042562,0,0,0.85615,-0.0012997,0,0.85616,-0.70801,-1.0193,-0.82467,-85.097,-0.85066,0.29277,0.0002224,0.62,0.94,0
0.2432,-0.021576,0.38582,-1.0187,-0.68996,-0.80197,-0.0092127,0,0,-0.3757,0.11095,0,-0.037863,0,0,0.85549,-0.0024845,0,0.85549,-0.68928,-1.0194,-0.80197,-86.307,-0.83688,0.3093,-0.00013332,0.64,0.94,0
0.23528,-0.020907,0.36301,-1.0189,-0.67103,-0.77923,-0.0080441,0,0,-0.41536,0.10659,0,-0.033194,0,0,0.85462,-0.0035151,0,0.85463,-0.67058,-1.0193,-0.77923,-87.181,-0.82304,0.32613,-0.00054895,0.66,0.94,0
0.22658,-0.02022,0.34024,-1.0187,-0.65223,-0.75647,-0.0068225,0,0,-0.4546,0.10198,0,-0.028313,0,0,0.85356,-0.0044852,0,0.85357,-0.65194,-1.019,-0.75647,-87.861,-0.80914,0.34314,-0.0010245,0.68,0.94,0
0.2171,-0.019515,0.31749,-1.0183,-0.63354,-0.73368,-0.0054915,0,0,-0.4934,0.097128,0,-0.022997,0,0,0.85231,-0.005477,0,0.85233,-0.63337,-1.0185,-0.73368,-88.427,-0.79519,0.36026,-0.0015597,0.7,0.94,0
0.20685,-0.01879,0.29478,-1.0177,-0.61498,-0.71088,-0.0039904,0,0,-0.53175,0.092046,0,-0.017006,0,0,0.85085,-0.0065711,0,0.85088,-0.61489,-1.0177,-0.71088,-88.928,-0.78117,0.3774,-0.0021537,0.72,0.94,0
0.19583,-0.018044,0.27211,-1.0167,-0.59653,-0.68804,-0.0022471,0,0,-0.56961,0.086726,0,-0.010054,0,0,0.84916,-0.0078563,0,0.8492,-0.5965,-1.0167,-0.68804,-89.399,-0.76708,0.3945,-0.002805,0.74,0.94,0
0.18406,-0.017272,0.24949,-1.0153,-0.57821,-0.66519,-0.00016779,0,0,-0.60695,0.081171,0,-0.0017777,0,0,0.84719,-0.0094416,0,0.84726,-0.57821,-1.0153,-0.66519,0.13142,-0.75292,0.41149,-0.0035118,0.76,0.94,0
0.17155,-0.016469,0.22693,-1.0137,-0.56002,-0.64231,0.0023759,0,0,-0.64373,0.075401,0,0.0083217,0,0,0.84491,-0.011472,0,0.845,-0.56,-1.0137,-0.64231,89.637,-0.73867,0.42836,-0.0042718,0.78,0.94,0
0.15831,-0.015626,0.20443,-1.0117,-0.54194,-0.61942,0.0055661,0,0,-0.67998,0.069475,0,0.020941,0,0,0.84224,-0.014155,0,0.84238,-0.54185,-1.0118,-0.61942,89.09,-0.72436,0.44511,-0.0050837,0.8,0.94,0
0.14435,-0.014733,0.18201,-1.0095,-0.52396,-0.59655,0.0096643,0,0,-0.71581,0.063536,0,0.037066,0,0,0.83912,-0.017804,0,0.83934,-0.5237,-1.0098,-0.59655,88.457,-0.71001,0.46188,-0.0059499,0.82,0.94,0
0.12968,-0.013775,0.15968,-1.0074,-0.50601,-0.57377,0.01505,0,0,-0.75155,0.057872,0,0.058107,0,0,0.83551,-0.022922,0,0.83588,-0.50542,-1.0079,-0.57377,87.7,-0.69571,0.47899,-0.0068809,0.84,0.94,0
0.11429,-0.012736,0.13745,-1.0058,-0.48803,-0.55124,0.022247,0,0,-0.78789,0.053013,0,0.085981,0,0,0.83147,-0.030358,0,0.83212,-0.4868,-1.007,-0.55124,86.779,-0.68169,0.49714,-0.0079063,0.86,0.94,0
0.098165,-0.011606,0.11533,-1.0058,-0.4699,-0.52922,0.032141,0,0,-0.82614,0.049789,0,0.12383,0,0,0.8274,-0.041635,0,0.8286,-0.46748,-1.0083,-0.52922,85.638,-0.66832,0.51762,-0.009093,0.88,0.94,0
0.081246,-0.010377,0.093322,-1.0106,-0.45271,-0.50898,0.045576,0,0,-0.86945,0.049274,0,0.17459,0,0,0.82418,-0.059854,0,0.82659,-0.44824,-1.0151,-0.50898,84.285,-0.65743,0.54274,-0.010599,0.9,0.94,0
0.063387,-0.0091701,0.071377,-1.0243,-0.43675,-0.49185,0.068196,0,0,-0.92295,0.052123,0,0.25658,0,0,0.83347,-0.091848,0,0.83871,-0.4279,-1.0332,-0.49185,82.342,-0.65098,0.57858,-0.012835,0.92,0.94,0
0.044328,-0.0077465,0.04887,-0.93292,-0.4203,-0.44262,0.10735,0,0,-0.87563,0.023243,0,0.39471,0,0,0.74822,-0.19222,0,0.77242,-0.3984,-0.95482,-0.44262,78.228,-0.59861,0.536,-0.0092377,0.94,0.94,0
0.029908,-0.0081006,0.032111,-1.0237,-0.41349,-0.46326,0.068611,0,0,-0.72854,0.064704,0,0.17839,0,0,0.82182,-0.11972,0,0.82939,-0.40587,-1.0313,-0.46326,83.663,-0.63348,0.5988,-0.010686,0.96,0.94,0
0.015187,-0.0081223,0.015997,-1.0086,-0.38285,-0.43343,0.033396,0,0,-0.74771,0.065753,0,0.086829,0,0,0.80277,-0.052237,0,0.8041,-0.38107,-1.0104,-0.43343,86.954,-0.60829,0.60482,-0.011076,0.98,0.94,0
0,-0.0080735,0,-0.98399,-0.34898,-0.39989,0.00093947,0,0,-0.75933,0.066184,0,0.0024426,0,0,0.79986,1.0408e-17,0,0.79957,-0.34898,-0.98399,-0.39989,89.915,-0.57762,0.61115,-0.01145,1,0.94,0
0,-0.0069384,1,-1.001,-1.6758,-1.8031,-0.0033605,0,0,1.0426,0.16541,0,-0.0087374,0,0,0.85069,-2.0947e-16,0,0.85069,-1.001,-1.6758,-1.8031,-0.28534,-1.4933,0.7466,0.019298,0,0.96,0
0.020852,-0.0071132,0.98299,-0.98179,-1.6378,-1.7689,-0.009473,0,0,1.0232,0.17037,0,-0.02463,0,0,0.85152,0.0029705,0,0.85152,-0.98165,-1.638,-1.7689,-0.82712,-1.4628,0.73061,0.017881,0.02,0.96,0
0.040928,-0.007614,0.96594,-0.98783,-1.6004,-1.7424,-0.017641,0,0,0.98097,0.18457,0,-0.045866,0,0,0.85389,0.0054767,0,0.8539,-0.98733,-1.601,-1.7424,-1.6481,-1.4436,0.69524,0.01488,0.04,0.96,0
0.060091,-0.0083699,0.94883,-0.99734,-1.5566,-1.715,-0.023354,0,0,0.93299,0.2059,0,-0.06072,0,0,0.85741,0.007167,0,0.85744,-0.99636,-1.5576,-1.715,-2.3869,-1.423,0.65431,0.011628,0.06,0.96,0
0.078248,-0.0092755,0.93164,-1.0089,-1.5092,-1.6871,-0.025976,0,0,0.88167,0.23118,0,-0.067538,0,0,0.86157,0.0078748,0,0.8616,-1.0075,-1.5106,-1.6871,-2.9638,-1.4017,0.61074,0.0084905,0.08,0.96,0
0.095358,-0.010213,0.91437,-1.0209,-1.4615,-1.6591,-0.025551,0,0,0.82967,0.25685,0,-0.066433,0,0,0.86581,0.0076275,0,0.86585,-1.0194,-1.463,-1.6591,-3.3077,-1.3805,0.56764,0.0057541,0.1,0.96,0
0.11144,-0.011074,0.89701,-1.032,-1.4162,-1.6315,-0.022715,0,0,0.77934,0.27984,0,-0.05906,0,0,0.86966,0.0065976,0,0.86969,-1.0306,-1.4175,-1.6315,-3.3716,-1.3599,0.52747,0.0035749,0.12,0.96,0
0.12653,-0.01178,0.87958,-1.0412,-1.3752,-1.6045,-0.018396,0,0,0.7323,0.29809,0,-0.047829,0,0,0.87277,0.0050246,0,0.87278,-1.0402,-1.3762,-1.6045,-3.1429,-1.3403,0.49168,0.0019746,0.14,0.96,0
0.14073,-0.012282,0.8621,-1.048,-1.3394,-1.5783,-0.013459,0,0,0.68939,0.31059,0,-0.034993,0,0,0.87491,0.0031461,0,0.87492,-1.0474,-1.34,-1.5783,-2.6391,-1.3219,0.46059,0.0008837,0.16,0.96,0
0.15411,-0.012558,0.84459,-1.0524,-1.3091,-1.553,-0.00851,0,0,0.65081,0.31715,0,-0.022126,0,0,0.876,0.0011629,0,0.876,-1.0521,-1.3094,-1.553,-1.897,-1.3048,0.43385,0.00019633,0.18,0.96,0
0.16676,-0.012608,0.82706,-1.0544,-1.284,-1.5286,-0.0038653,0,0,0.61644,0.31794,0,-0.01005,0,0,0.87603,-0.00075975,0,0.87603,-1.0543,-1.2841,-1.5286,-0.96413,-1.289,0.41078,-0.00019173,0.2,0.96,0
0.17877,-0.012441,0.80954,-1.0542,-1.264,-1.505,0.00033554,0,0,0.58605,0.31327,0,0.0008724,0,0,0.87506,-0.0024625,0,0.87507,-1.0542,-1.264,-1.505,0.091621,-1.2744,0.39072,-0.00036553,0.22,0.96,0
0.1902,-0.012072,0.79206,-1.0521,-1.2489,-1.4824,0.0039694,0,0,0.55937,0.30348,0,0.01032,0,0,0.87321,-0.0037462,0,0.87322,-1.052,-1.249,-1.4824,1.1548,-1.2611,0.37315,-0.00038891,0.24,0.96,0
0.20114,-0.011526,0.77462,-1.0483,-1.2383,-1.4606,0.0067745,0,0,0.53602,0.28897,0,0.017614,0,0,0.87071,-0.0043151,0,0.87072,-1.048,-1.2385,-1.4606,2.039,-1.249,0.35764,-0.00030982,0.26,0.96,0
0.21164,-0.01084,0.75723,-1.0433,-1.2317,-1.4397,0.0082459,0,0,0.51538,0.27042,0,0.021439,0,0,0.86793,-0.0037121,0,0.86794,-1.0429,-1.2321,-1.4397,2.501,-1.2382,0.34377,-0.00016835,0.28,0.96,0
0.22176,-0.010072,0.7399,-1.0379,-1.2281,-1.4197,0.0076286,0,0,0.49633,0.24907,0,0.019834,0,0,0.86549,-0.0012477,0,0.86549,-1.0376,-1.2284,-1.4197,2.2932,-1.2286,0.3309,-4.079e-06,0.3,0.96,0
0.2315,-0.0093034,0.72261,-1.0335,-1.2259,-1.4004,0.0040193,0,0,0.47702,0.2269,0,0.01045,0,0,0.86437,0.0040909,0,0.86437,-1.0334,-1.226,-1.4004,1.1963,-1.2199,0.31798,0.00014089,0.32,0.96,0
0.24083,-0.0086407,0.70532,-1.0317,-1.2226,-1.3816,-0.0035615,0,0,0.45489,0.20669,0,-0.0092599,0,0,0.86609,0.013786,0,0.86619,-1.0316,-1.2227,-1.3816,-1.0683,-1.212,0.30352,0.00022723,0.34,0.96,0
0.24969,-0.0082195,0.68797,-1.0353,-1.2159,-1.3633,-0.016033,0,0,0.42645,0.19163,0,-0.041685,0,0,0.87316,0.03007,0,0.87364,-1.0339,-1.2173,-1.3633,-5.0333,-1.2048,0.28592,0.00023452,0.36,0.96,0
0.25789,-0.0081916,0.6704,-1.0463,-1.2021,-1.3449,-0.036276,0,0,0.38818,0.18565,0,-0.094317,0,0,0.89111,0.056358,0,0.89283,-1.0383,-1.2102,-1.3449,-12.486,-1.1978,0.2662,0.00020113,0.38,0.96,0
0.26522,-0.008941,0.65232,-1.0864,-1.1872,-1.3344,-0.065776,0,0,0.3224,0.19135,0,-0.17102,0,0,0.9381,0.098235,0,0.94325,-1.0539,-1.2197,-1.3344,-26.268,-1.2027,0.24422,0.00023099,0.4,0.96,0
0.27079,-0.010669,0.63287,-1.1271,-1.1073,-1.3032,-0.10226,0,0,0.2289,0.25466,0,-0.26588,0,0,1.0071,0.14921,0,1.0199,-1.0145,-1.22,-1.3032,-47.766,-1.1792,0.2574,0.00057706,0.42,0.96,0
0.27437,-0.013421,0.61204,-1.1527,-0.9477,-1.2422,-0.080642,0,0,0.1163,0.38279,0,-0.20967,0,0,1.071,0.078783,0,1.0736,-0.91978,-1.1806,-1.2422,-70.903,-1.1142,0.29643,0.0011459,0.44,0.96,0
0.27544,-0.01545,0.59003,-1.2059,-0.91114,-1.2251,-0.05101,0,0,0.025054,0.40819,0,-0.13263,0,0,1.1079,0.046033,0,1.1088,-0.90256,-1.2144,-1.2251,-80.453,-1.114,0.31736,0.0016354,0.46,0.96,0
0.27538,-0.016272,0.56772,-1.2169,-0.87406,-1.195,-0.03068,0,0,-0.028446,0.41722,0,-0.079769,0,0,1.1205,0.028008,0,1.1209,-0.87134,-1.2196,-1.195,-84.926,-1.0953,0.33664,0.0019242,0.48,0.96,0
0.2743,-0.016539,0.54521,-1.2257,-0.84465,-1.1663,-0.021194,0,0,-0.077207,0.41817,0,-0.055105,0,0,1.1287,0.017413,0,1.1288,-0.84348,-1.2269,-1.1663,-86.826,-1.0789,0.357,0.0021119,0.5,0.96,0
0.27229,-0.016491,0.52257,-1.2332,-0.81938,-1.1383,-0.016171,0,0,-0.12331,0.41466,0,-0.042044,0,0,1.1339,0.010867,0,1.134,-0.81875,-1.2338,-1.1383,-87.766,-1.0636,0.37653,0.0021588,0.52,0.96,0
0.26937,-0.016276,0.49985,-1.2396,-0.79661,-1.1107,-0.013411,0,0,-0.16756,0.40835,0,-0.034869,0,0,1.1373,0.0066353,0,1.1373,-0.7962,-1.24,-1.1107,-88.268,-1.049,0.39535,0.0020672,0.54,0.96,0
0.26559,-0.015968,0.47708,-1.245,-0.77526,-1.0832,-0.011698,0,0,-0.21043,0.40029,0,-0.030416,0,0,1.1393,0.0037868,0,1.1393,-0.77497,-1.2453,-1.0832,-88.574,-1.0345,0.41384,0.001847,0.56,0.96,0
0.26095,-0.015607,0.45428,-1.2497,-0.75476,-1.0556,-0.010487,0,0,-0.25229,0.39111,0,-0.027266,0,0,1.1403,0.0017948,0,1.1403,-0.75454,-1.2499,-1.0556,-88.787,-1.02,0.43232,0.0015063,0.58,0.96,0
0.25549,-0.015214,0.43147,-1.2537,-0.73479,-1.028,-0.0095157,0,0,-0.29341,0.38121,0,-0.024741,0,0,1.1406,0.00034582,0,1.1406,-0.73462,-1.2539,-1.028,-88.95,-1.0055,0.45098,0.0010504,0.6,0.96,0
0.24922,-0.014797,0.40866,-1.2572,-0.71516,-1.0004,-0.0086549,0,0,-0.33392,0.37079,0,-0.022503,0,0,1.1403,-0.00075718,0,1.1403,-0.71502,-1.2574,-1.0004,-89.085,-0.99093,0.46991,0.00048192,0.62,0.96,0
0.24214,-0.014365,0.38586,-1.2603,-0.69578,-0.97268,-0.007833,0,0,-0.37391,0.35998,0,-0.020366,0,0,1.1397,-0.0016453,0,1.1397,-0.69567,-1.2604,-0.97268,-89.205,-0.97625,0.48911,-0.0001974,0.64,0.96,0
0.23426,-0.013918,0.36307,-1.263,-0.67659,-0.94493,-0.0070019,0,0,-0.41341,0.34885,0,-0.018205,0,0,1.1386,-0.0024122,0,1.1386,-0.6765,-1.263,-0.94493,-89.316,-0.96149,0.50855,-0.00098637,0.66,0.96,0
0.2256,-0.013458,0.34032,-1.2652,-0.65757,-0.91714,-0.0061221,0,0,-0.45244,0.33744,0,-0.015918,0,0,1.1372,-0.0031304,0,1.1372,-0.65751,-1.2652,-0.91714,-89.423,-0.94663,0.52816,-0.0018834,0.68,0.96,0
0.21616,-0.012985,0.31759,-1.267,-0.63872,-0.88929,-0.0051536,0,0,-0.49096,0.32574,0,-0.013399,0,0,1.1355,-0.0038627,0,1.1355,-0.63868,-1.267,-0.88929,-89.53,-0.93166,0.54784,-0.002886,0.7,0.96,0
0.20596,-0.012499,0.2949,-1.2683,-0.62005,-0.86139,-0.0040503,0,0,-0.52893,0.31374,0,-0.010531,0,0,1.1334,-0.004671,0,1.1334,-0.62002,-1.2683,-0.86139,-89.642,-0.91657,0.56748,-0.0039902,0.72,0.96,0
0.19501,-0.011996,0.27225,-1.269,-0.60157,-0.83343,-0.0027525,0,0,-0.56627,0.30142,0,-0.0071566,0,0,1.1309,-0.0056236,0,1.1309,-0.60156,-1.269,-0.83343,-89.764,-0.90134,0.58696,-0.0051903,0.74,0.96,0
0.18331,-0.011473,0.24966,-1.2692,-0.58331,-0.8054,-0.0011768,0,0,-0.60289,0.28872,0,-0.0030597,0,0,1.1279,-0.0068061,0,1.128,-0.58331,-1.2692,-0.8054,-89.902,-0.88596,0.60613,-0.0064777,0.76,0.96,0
0.17089,-0.010926,0.22713,-1.2686,-0.56532,-0.7773,0.00080002,0,0,-0.63864,0.27557,0,0.00208,0,0,1.1244,-0.0083357,0,1.1244,-0.56532,-1.2686,-0.7773,89.935,-0.8704,0.62483,-0.0078409,0.78,0.96,0
0.15776,-0.010347,0.20469,-1.2671,-0.54766,-0.74912,0.0033664,0,0,-0.67339,0.26189,0,0.0087526,0,0,1.12,-0.010386,0,1.1201,-0.54764,-1.2671,-0.74912,89.732,-0.85463,0.64287,-0.0092639,0.8,0.96,0
0.14396,-0.0097244,0.18233,-1.2646,-0.53038,-0.72083,0.0068141,0,0,-0.70692,0.24759,0,0.017716,0,0,1.1147,-0.01323,0,1.1148,-0.53032,-1.2647,-0.72083,89.468,-0.83861,0.66006,-0.010727,0.82,0.96,0
0.12949,-0.0090428,0.1601,-1.2609,-0.51355,-0.69243,0.011583,0,0,-0.739,0.23255,0,0.030116,0,0,1.108,-0.017329,0,1.1081,-0.51337,-1.2611,-0.69243,89.112,-0.82229,0.67619,-0.012205,0.84,0.96,0
0.1144,-0.0082835,0.13801,-1.2556,-0.49716,-0.66384,0.01832,0,0,-0.76927,0.21668,0,0.047633,0,0,1.0994,-0.023502,0,1.0997,-0.49672,-1.256,-0.66384,88.617,-0.80553,0.69107,-0.013667,0.86,0.96,0
0.098718,-0.007428,0.11612,-1.2476,-0.48087,-0.63465,0.027701,0,0,-0.79678,0.19992,0,0.072023,0,0,1.0881,-0.033299,0,1.0886,-0.47987,-1.2486,-0.63465,87.933,-0.78769,0.70417,-0.015054,0.88,0.96,0
0.082524,-0.0064962,0.094488,-1.2327,-0.46372,-0.60343,0.040821,0,0,-0.81811,0.18162,0,0.10613,0,0,1.0727,-0.049774,0,1.0739,-0.46156,-1.2349,-0.60343,86.97,-0.76663,0.71307,-0.016165,0.9,0.96,0
0.065994,-0.0055238,0.073213,-1.1899,-0.439,-0.56187,0.052071,0,0,-0.81639,0.15973,0,0.13539,0,0,1.0344,-0.079642,0,1.0372,-0.43541,-1.1935,-0.56187,86.052,-0.73025,0.7034,-0.015944,0.92,0.96,0
0.049869,-0.0054286,0.053115,-1.1623,-0.4382,-0.53325,0.064487,0,0,-0.81769,0.12356,0,0.16767,0,0,0.97061,-0.14466,0,0.9831,-0.4325,-1.1679,-0.53325,84.95,-0.71123,0.6906,-0.01571,0.94,0.96,0
0.033286,-0.0060294,0.034389,-1.1265,-0.39376,-0.49046,0.04137,0,0,-0.82683,0.12571,0,0.10756,0,0,0.90326,-0.090666,0,0.90776,-0.39143,-1.1288,-0.49046,86.779,-0.67024,0.6932,-0.015937,0.96,0.96,0
0.016796,-0.0061362,0.016984,-1.0925,-0.35886,-0.45239,0.023169,0,0,-0.83214,0.12159,0,0.06024,0,0,0.85971,-0.041013,0,0.86052,-0.35813,-1.0932,-0.45239,88.193,-0.63459,0.6928,-0.016018,0.98,0.96,0
0,-0.0061407,0,-1.0615,-0.32344,-0.41547,-8.7418e-05,0,0,-0.83978,0.11964,0,-0.00022729,0,0,0.8492,-5.2042e-18,0,0.84903,-0.32344,-1.0615,-0.41547,-89.993,-0.60012,0.69657,-0.016342,1,0.96,0
0,-0.003522,1,-1.0042,-1.6683,-1.8017,-0.0016067,0,0,1.0369,0.17346,0,-0.0041773,0,0,0.85277,1.418e-15,0,0.85277,-1.0042,-1.6683,-1.8017,-0.13861,-1.4914,0.73995,0.018548,0,0.98,0
0.020737,-0.0036055,0.98294,-0.98463,-1.6308,-1.7676,-0.0045828,0,0,1.0178,0.17783,0,-0.011915,0,0,0.85345,0.0013736,0,0.85345,-0.9846,-1.6308,-1.7676,-0.40634,-1.461,0.72434,0.017197,0.02,0.98,0
0.040713,-0.0038451,0.96586,-0.99008,-1.595,-1.7414,-0.0085461,0,0,0.97667,0.19035,0,-0.02222,0,0,0.85538,0.0025417,0,0.85538,-0.98996,-1.5951,-1.7414,-0.80931,-1.4421,0.68999,0.014348,0.04,0.98,0
0.059804,-0.0042074,0.94873,-0.99878,-1.5534,-1.7144,-0.011352,0,0,0.9303,0.20925,0,-0.029515,0,0,0.85828,0.0033456,0,0.85829,-0.99855,-1.5537,-1.7144,-1.172,-1.4222,0.65055,0.011284,0.06,0.98,0
0.077925,-0.0046433,0.93153,-1.0095,-1.5086,-1.6869,-0.012703,0,0,0.88069,0.23189,0,-0.033029,0,0,0.86177,0.0037045,0,0.86178,-1.0092,-1.5089,-1.6869,-1.4571,-1.4017,0.60861,0.0083246,0.08,0.98,0
0.095032,-0.0050974,0.91426,-1.0209,-1.463,-1.6594,-0.012605,0,0,0.83012,0.25532,0,-0.032774,0,0,0.86539,0.0036209,0,0.8654,-1.0205,-1.4634,-1.6594,-1.6317,-1.3811,0.56691,0.0057253,0.1,0.98,0
0.11113,-0.0055184,0.89692,-1.0317,-1.4192,-1.6322,-0.011327,0,0,0.78067,0.27686,0,-0.029451,0,0,0.86876,0.0031632,0,0.86876,-1.0313,-1.4195,-1.6322,-1.6728,-1.361,0.5277,0.0036274,0.12,0.98,0
0.12626,-0.0058666,0.87951,-1.0409,-1.3789,-1.6055,-0.0092792,0,0,0.73391,0.2945,0,-0.024126,0,0,0.87154,0.0024346,0,0.87154,-1.0407,-1.3792,-1.6055,-1.5714,-1.3418,0.49234,0.0020596,0.14,0.98,0
0.14049,-0.006117,0.86205,-1.048,-1.3433,-1.5794,-0.0068667,0,0,0.69084,0.30704,0,-0.017854,0,0,0.87352,0.0015456,0,0.87352,-1.0479,-1.3434,-1.5794,-1.3317,-1.3236,0.46132,0.00097053,0.16,0.98,0
0.15389,-0.0062575,0.84457,-1.0528,-1.3127,-1.5542,-0.0043951,0,0,0.65188,0.31396,0,-0.011427,0,0,0.87459,0.00059645,0,0.87459,-1.0527,-1.3128,-1.5542,-0.9684,-1.3066,0.43443,0.0002711,0.18,0.98,0
0.16656,-0.0062856,0.82707,-1.0551,-1.2873,-1.5298,-0.0020481,0,0,0.61709,0.31521,0,-0.005325,0,0,0.87473,-0.00032317,0,0.87473,-1.0551,-1.2874,-1.5298,-0.50529,-1.2908,0.41113,-0.00013289,0.2,0.98,0
0.17858,-0.0062054,0.80958,-1.0553,-1.267,-1.5063,7.1844e-05,0,0,0.58628,0.31103,0,0.00018679,0,0,0.87402,-0.0011224,0,0.87402,-1.0553,-1.267,-1.5063,0.019442,-1.2762,0.39081,-0.00032332,0.22,0.98,0
0.19001,-0.0060252,0.79211,-1.0535,-1.2514,-1.4836,0.0018722,0,0,0.5591,0.30181,0,0.0048676,0,0,0.87264,-0.0016876,0,0.87264,-1.0535,-1.2514,-1.4836,0.54191,-1.2628,0.37287,-0.00036516,0.24,0.98,0
0.20094,-0.0057584,0.77467,-1.0502,-1.2401,-1.4618,0.0032008,0,0,0.53501,0.28815,0,0.0083219,0,0,0.87091,-0.0018547,0,0.87091,-1.0502,-1.2402,-1.4618,0.9654,-1.2507,0.35681,-0.00030919,0.26,0.98,0
0.21141,-0.0054253,0.75727,-1.0461,-1.2323,-1.4408,0.003803,0,0,0.51314,0.27101,0,0.0098879,0,0,0.86935,-0.0013768,0,0.86935,-1.046,-1.2324,-1.4408,1.1693,-1.2397,0.34208,-0.00019791,0.28,0.98,0
0.22146,-0.0050556,0.7399,-1.042,-1.2268,-1.4205,0.0033244,0,0,0.49215,0.2518,0,0.0086435,0,0,0.86881,0.00011495,0,0.86881,-1.0419,-1.2269,-1.4205,1.0298,-1.2298,0.32794,-7.1503e-05,0.3,0.98,0
0.2311,-0.0046905,0.72252,-1.0392,-1.222,-1.4009,0.0013501,0,0,0.47015,0.23259,0,0.0035103,0,0,0.8706,0.0031654,0,0.8706,-1.0392,-1.222,-1.4009,0.42327,-1.2207,0.31322,2.9187e-05,0.32,0.98,0
0.24027,-0.0043829,0.70508,-1.0396,-1.2154,-1.3816,-0.0025311,0,0,0.44457,0.21602,0,-0.0065808,0,0,0.87669,0.0085785,0,0.87674,-1.0396,-1.2154,-1.3816,-0.82464,-1.2122,0.29623,6.5905e-05,0.34,0.98,0
0.24888,-0.004197,0.68745,-1.0451,-1.2042,-1.3622,-0.0089454,0,0,0.4123,0.20549,0,-0.023258,0,0,0.89013,0.017515,0,0.89032,-1.0446,-1.2046,-1.3622,-3.2083,-1.2038,0.2751,1.4685e-05,0.36,0.98,0
0.25676,-0.0042353,0.66947,-1.0603,-1.1858,-1.3433,-0.018435,0,0,0.36788,0.20479,0,-0.047931,0,0,0.91556,0.031327,0,0.91619,-1.0576,-1.1884,-1.3433,-8.1888,-1.1965,0.24766,-0.00011361,0.38,0.98,0
0.2636,-0.0045985,0.65083,-1.0845,-1.1489,-1.3209,-0.031536,0,0,0.30726,0.22353,0,-0.081993,0,0,0.95493,0.048435,0,0.95649,-1.0716,-1.1618,-1.3209,-22.2,-1.1848,0.21856,-0.00024526,0.4,0.98,0
0.26905,-0.0054178,0.63127,-1.1201,-1.0888,-1.2939,-0.04119,0,0,0.22599,0.26672,0,-0.10709,0,0,1.0036,0.052348,0,1.0053,-1.0604,-1.1485,-1.2939,-55.41,-1.1676,0.2043,-0.00017942,0.42,0.98,0
0.27264,-0.0065536,0.61069,-1.1534,-0.99801,-1.2561,-0.04186,0,0,0.13351,0.33553,0,-0.10884,0,0,1.0504,0.044124,0,1.0516,-0.98746,-1.164,-1.2561,-75.844,-1.1359,0.23646,0.00034804,0.44,0.98,0
0.27439,-0.0075111,0.58926,-1.1854,-0.92538,-1.2225,-0.028539,0,0,0.048214,0.38625,0,-0.074202,0,0,1.0859,0.026616,0,1.0862,-0.92228,-1.1885,-1.2225,-83.81,-1.1111,0.28474,0.0011289,0.46,0.98,0
0.27457,-0.0080521,0.56725,-1.2111,-0.88239,-1.1953,-0.017447,0,0,-0.020564,0.40679,0,-0.045361,0,0,1.1083,0.015983,0,1.1085,-0.88147,-1.2121,-1.1953,-86.971,-1.0963,0.32253,0.0017076,0.48,0.98,0
0.27357,-0.008232,0.54492,-1.2244,-0.84884,-1.1669,-0.011095,0,0,-0.074761,0.41347,0,-0.028847,0,0,1.1214,0.0097898,0,1.1214,-0.84851,-1.2247,-1.1669,-88.309,-1.08,0.3509,0.0020173,0.5,0.98,0
0.27157,-0.0082287,0.5224,-1.2332,-0.82177,-1.1389,-0.0081161,0,0,-0.12266,0.41227,0,-0.021102,0,0,1.1294,0.0060483,0,1.1294,-0.82161,-1.2334,-1.1389,-88.871,-1.0646,0.37362,0.002112,0.52,0.98,0
0.26866,-0.0081287,0.49975,-1.2397,-0.79807,-1.1111,-0.0066089,0,0,-0.16719,0.4069,0,-0.017183,0,0,1.1344,0.0036818,0,1.1344,-0.79797,-1.2398,-1.1111,-89.143,-1.0496,0.39356,0.0020393,0.54,0.98,0
0.26489,-0.0079776,0.47702,-1.2449,-0.77627,-1.0834,-0.0057537,0,0,-0.20994,0.39921,0,-0.01496,0,0,1.1373,0.0021171,0,1.1373,-0.7762,-1.2449,-1.0834,-89.297,-1.0348,0.4124,0.0018284,0.56,0.98,0
0.26027,-0.007798,0.45425,-1.2492,-0.75555,-1.0557,-0.0051743,0,0,-0.25162,0.39019,0,-0.013453,0,0,1.1389,0.0010384,0,1.1389,-0.75549,-1.2493,-1.0557,-89.4,-1.0202,0.43096,0.001494,0.58,0.98,0
0.25482,-0.0076013,0.43146,-1.2531,-0.73546,-1.028,-0.0047111,0,0,-0.29258,0.38034,0,-0.012249,0,0,1.1396,0.00026232,0,1.1396,-0.73542,-1.2531,-1.028,-89.479,-1.0055,0.44962,0.0010436,0.6,0.98,0
0.24856,-0.0073932,0.40867,-1.2565,-0.71578,-1.0004,-0.0042931,0,0,-0.33296,0.36994,0,-0.011162,0,0,1.1396,-0.00032323,0,1.1396,-0.71574,-1.2565,-1.0004,-89.545,-0.99087,0.46853,0.00048041,0.62,0.98,0
0.2415,-0.0071766,0.38588,-1.2594,-0.69639,-0.97263,-0.0038854,0,0,-0.37284,0.35912,0,-0.010102,0,0,1.139,-0.00079143,0,1.139,-0.69636,-1.2595,-0.97263,-89.605,-0.97615,0.48769,-0.00019345,0.64,0.98,0
0.23365,-0.0069528,0.36311,-1.262,-0.67722,-0.94487,-0.0034663,0,0,-0.41223,0.34795,0,-0.0090123,0,0,1.138,-0.0011935,0,1.138,-0.6772,-1.262,-0.94487,-89.66,-0.96135,0.50705,-0.00097639,0.66,0.98,0
0.22501,-0.0067224,0.34036,-1.2641,-0.65825,-0.91706,-0.0030172,0,0,-0.45112,0.33645,0,-0.0078447,0,0,1.1366,-0.0015687,0,1.1366,-0.65823,-1.2641,-0.91706,-89.715,-0.94646,0.52653,-0.0018662,0.68,0.98,0
0.21561,-0.0064852,0.31765,-1.2657,-0.63948,-0.8892,-0.0025183,0,0,-0.48945,0.32464,0,-0.0065477,0,0,1.1349,-0.0019506,0,1.1349,-0.63947,-1.2657,-0.8892,-89.77,-0.93146,0.54603,-0.0028597,0.7,0.98,0
0.20544,-0.0062406,0.29497,-1.2668,-0.62092,-0.86128,-0.001945,0,0,-0.52716,0.31247,0,-0.005057,0,0,1.1327,-0.0023723,0,1.1327,-0.62092,-1.2668,-0.86128,-89.828,-0.91633,0.56541,-0.0039517,0.72,0.98,0
0.19452,-0.0059873,0.27234,-1.2672,-0.60261,-0.83329,-0.0012634,0,0,-0.56414,0.29989,0,-0.0032848,0,0,1.1301,-0.0028707,0,1.1301,-0.6026,-1.2672,-0.83329,-89.891,-0.90105,0.5845,-0.0051343,0.74,0.98,0
0.18287,-0.0057235,0.24976,-1.2669,-0.58458,-0.80522,-0.00042383,0,0,-0.60024,0.28683,0,-0.0011019,0,0,1.1269,-0.0034923,0,1.1269,-0.58458,-1.2669,-0.80522,-89.964,-0.88558,0.60311,-0.0063959,0.76,0.98,0
0.17051,-0.0054461,0.22726,-1.2657,-0.56692,-0.77704,0.00065035,0,0,-0.63523,0.27316,0,0.0016909,0,0,1.123,-0.0043024,0,1.123,-0.56692,-1.2657,-0.77704,89.947,-0.86988,0.62096,-0.0077189,0.78,0.98,0
0.15746,-0.0051503,0.20485,-1.2632,-0.54974,-0.74872,0.0020809,0,0,-0.66879,0.25867,0,0.0054103,0,0,1.1181,-0.0053998,0,1.1181,-0.54973,-1.2632,-0.74872,89.833,-0.85388,0.63768,-0.0090766,0.8,0.98,0
0.14376,-0.0048292,0.18254,-1.259,-0.53318,-0.72018,0.0040602,0,0,-0.70042,0.24311,0,0.010556,0,0,1.1119,-0.0069449,0,1.1119,-0.53315,-1.259,-0.72018,89.68,-0.83744,0.65274,-0.010429,0.82,0.98,0
0.12945,-0.0044728,0.16037,-1.2524,-0.51741,-0.69131,0.0068819,0,0,-0.7294,0.22607,0,0.017893,0,0,1.1037,-0.0092159,0,1.1038,-0.51735,-1.2525,-0.69131,89.464,-0.82037,0.6654,-0.011716,0.84,0.98,0
0.11458,-0.0040687,0.13839,-1.2424,-0.50258,-0.66187,0.010918,0,0,-0.75465,0.20709,0,0.028386,0,0,1.0927,-0.012722,0,1.0928,-0.50242,-1.2425,-0.66187,89.155,-0.80228,0.67468,-0.012852,0.86,0.98,0
0.099259,-0.0036096,0.11667,-1.2276,-0.48872,-0.63157,0.016458,0,0,-0.77487,0.1857,0,0.04279,0,0,1.0769,-0.018431,0,1.0771,-0.48836,-1.228,-0.63157,88.725,-0.78264,0.67944,-0.013728,0.88,0.98,0
0.083587,-0.0031125,0.095312,-1.2055,-0.47433,-0.59926,0.021993,0,0,-0.78809,0.1624,0,0.057182,0,0,1.0526,-0.028152,0,1.053,-0.47367,-1.2061,-0.59926,88.279,-0.75969,0.67845,-0.014205,0.9,0.98,0
0.067735,-0.0027808,0.074563,-1.1852,-0.46272,-0.56895,0.024237,0,0,-0.80117,0.1381,0,0.063016,0,0,1.0164,-0.04407,0,1.0176,-0.46191,-1.1861,-0.56895,88.081,-0.73897,0.677,-0.014602,0.92,0.98,0
0.05154,-0.0028041,0.054656,-1.1627,-0.42727,-0.53166,0.018245,0,0,-0.82042,0.13571,0,0.047436,0,0,0.97063,-0.050327,0,0.9723,-0.42681,-1.1632,-0.53166,88.58,-0.70722,0.68997,-0.015565,0.94,0.98,0
0.034918,-0.0030721,0.035737,-1.141,-0.37441,-0.49036,0.015267,0,0,-0.84583,0.15074,0,0.039694,0,0,0.92547,-0.043572,0,0.92677,-0.3741,-1.1413,-0.49036,88.859,-0.66859,0.71618,-0.017202,0.96,0.98,0
0.017707,-0.0032587,0.017638,-1.1307,-0.34122,-0.45922,0.0093276,0,0,-0.87296,0.1534,0,0.024252,0,0,0.89344,-0.021906,0,0.89371,-0.34111,-1.1308,-0.45922,89.323,-0.64372,0.7378,-0.018857,0.98,0.98,0
0,-0.003288,0,-1.1033,-0.30413,-0.42222,-0.00056427,0,0,-0.88537,0.15352,0,-0.0014671,0,0,0.88188,-6.0715e-18,0,0.88183,-0.30413,-1.1033,-0.42222,-89.96,-0.60988,0.74713,-0.019628,1,0.98,0
0,0,1,-1.0052,-1.6659,-1.8013,-1.5179e-17,0,0,1.035,0.1761,0,-3.9899e-17,0,0,0.85343,2.0318e-16,0,0.85343,-1.0052,-1.6659,-1.8013,-1.3164e-15,-1.4908,0.73777,0.018303,0,1,0
0.020699,0,0.98293,-0.98559,-1.6285,-1.7671,-0.00073397,0,0,1.016,0.18027,0,-0.0019083,0,0,0.85406,0.00066061,0,0.85406,-0.98559,-1.6285,-1.7671,-0.065413,-1.4604,0.72228,0.016973,0.02,1,0
0.040641,0,0.96584,-0.99085,-1.5932,-1.741,-0.0013732,0,0,0.97524,0.19226,0,-0.0035703,0,0,0.85586,0.0012245,0,0.85586,-0.99084,-1.5932,-1.741,-0.13063,-1.4417,0.68827,0.014174,0.04,1,0
0.059709,0,0.9487,-0.99928,-1.5524,-1.7142,-0.0018346,0,0,0.92938,0.21037,0,-0.0047699,0,0,0.85857,0.0016163,0,0.85857,-0.99928,-1.5524,-1.7142,-0.19005,-1.422,0.64931,0.011171,0.06,1,0
0.077817,0,0.93149,-1.0097,-1.5083,-1.6869,-0.0020766,0,0,0.88033,0.23217,0,-0.0053992,0,0,0.86184,0.0017962,0,0.86184,-1.0097,-1.5083,-1.6869,-0.23863,-1.4017,0.6079,0.0082694,0.08,1,0
0.094922,0,0.91422,-1.0209,-1.4635,-1.6595,-0.0021102,0,0,0.83023,0.25487,0,-0.0054865,0,0,0.86527,0.0017633,0,0.86527,-1.0209,-1.4635,-1.6595,-0.27317,-1.3813,0.56666,0.0057146,0.1,1,0
0.11103,0,0.89688,-1.0316,-1.4202,-1.6324,-0.0019902,0,0,0.78108,0.27592,0,-0.0051745,0,0,0.86847,0.0015477,0,0.86847,-1.0316,-1.4202,-1.6324,-0.29344,-1.3614,0.52776,0.0036437,0.12,1,0
0.12616,0,0.87948,-1.0408,-1.3801,-1.6058,-0.001792,0,0,0.73444,0.29333,0,-0.0046591,0,0,0.87115,0.0011974,0,0.87115,-1.0408,-1.3801,-1.6058,-0.30257,-1.3422,0.49256,0.0020875,0.14,1,0
0.1404,0,0.86204,-1.048,-1.3445,-1.5798,-0.0015837,0,0,0.69133,0.30585,0,-0.0041175,0,0,0.87307,0.0007654,0,0.87307,-1.048,-1.3445,-1.5798,-0.30599,-1.3241,0.46157,0.00099992,0.16,1,0
0.15382,0,0.84456,-1.0529,-1.3139,-1.5546,-0.0014097,0,0,0.65226,0.31287,0,-0.0036652,0,0,0.87413,0.00030191,0,0.87413,-1.0529,-1.3139,-1.5546,-0.30937,-1.3071,0.43465,0.00029697,0.18,1,0
0.16649,0,0.82707,-1.0553,-1.2885,-1.5302,-0.0012884,0,0,0.61733,0.31428,0,-0.0033498,0,0,0.87431,-0.00014677,0,0.87431,-1.0553,-1.2885,-1.5302,-0.31665,-1.2913,0.41128,-0.00011231,0.2,1,0
0.17851,0,0.80959,-1.0556,-1.268,-1.5067,-0.0012229,0,0,0.58637,0.31027,0,-0.0031797,0,0,0.8737,-0.00053247,0,0.8737,-1.0556,-1.268,-1.5067,-0.3299,-1.2768,0.39085,-0.00030862,0.22,1,0
0.18995,0,0.79212,-1.054,-1.2523,-1.484,-0.0012178,0,0,0.55901,0.30126,0,-0.0031662,0,0,0.87248,-0.00079491,0,0.87248,-1.054,-1.2523,-1.484,-0.35189,-1.2634,0.37278,-0.00035712,0.24,1,0
0.20087,0,0.77469,-1.0509,-1.2407,-1.4622,-0.0012942,0,0,0.53464,0.28792,0,-0.0033649,0,0,0.87102,-0.000848,0,0.87102,-1.0509,-1.2407,-1.4622,-0.39069,-1.2512,0.35652,-0.00030925,0.26,1,0
0.21133,0,0.75728,-1.047,-1.2325,-1.4411,-0.0015006,0,0,0.51233,0.27126,0,-0.0039017,0,0,0.8699,-0.00056348,0,0.8699,-1.047,-1.2325,-1.4411,-0.46362,-1.2402,0.34151,-0.00020805,0.28,1,0
0.22137,0,0.73989,-1.0433,-1.2264,-1.4208,-0.001912,0,0,0.4907,0.25278,0,-0.0049711,0,0,0.87003,0.00024963,0,0.87003,-1.0433,-1.2264,-1.4208,-0.59849,-1.2302,0.32696,-9.3625e-05,0.3,1,0
0.23096,0,0.72248,-1.0411,-1.2206,-1.401,-0.0026148,0,0,0.46783,0.23452,0,-0.0067985,0,0,0.87283,0.0018742,0,0.87284,-1.0411,-1.2206,-1.401,-0.83456,-1.2209,0.31169,-6.1593e-06,0.32,1,0
0.24008,0,0.70498,-1.042,-1.2129,-1.3815,-0.0036992,0,0,0.44125,0.21915,0,-0.009618,0,0,0.88045,0.004726,0,0.88046,-1.0419,-1.213,-1.3815,-1.2398,-1.2121,0.29402,1.676e-05,0.34,1,0
0.24861,0,0.68727,-1.0486,-1.2006,-1.362,-0.0051673,0,0,0.40747,0.20985,0,-0.013435,0,0,0.8959,0.009383,0,0.89595,-1.0484,-1.2008,-1.362,-1.9446,-1.2037,0.27164,-5.0447e-05,0.36,1,0
0.25638,0,0.66914,-1.0624,-1.1785,-1.3414,-0.0074092,0,0,0.36269,0.21177,0,-0.019264,0,0,0.92203,0.016284,0,0.92217,-1.062,-1.179,-1.3414,-3.6368,-1.1941,0.24309,-0.0002042,0.38,1,0
0.26312,0,0.65038,-1.0867,-1.1422,-1.319,-0.0091579,0,0,0.30208,0.22992,0,-0.02381,0,0,0.95913,0.022326,0,0.95939,-1.0852,-1.1436,-1.319,-9.1315,-1.1826,0.21078,-0.00035922,0.4,1,0
0.26846,0,0.63078,-1.118,-1.0826,-1.291,-0.011392,0,0,0.22484,0.27089,0,-0.029618,0,0,1.0028,0.024678,0,1.0031,-1.0792,-1.1214,-1.291,-73.627,-1.1639,0.19412,-0.00031689,0.42,1,0
0.27211,0,0.61027,-1.1512,-1.0051,-1.2571,-0.010048,0,0,0.13778,0.32768,0,-0.026124,0,0,1.0453,0.020708,0,1.0455,-1.0044,-1.1519,-1.2571,-86.084,-1.1378,0.2199,0.00015515,0.44,1,0
0.27397,0,0.58897,-1.1828,-0.93558,-1.2245,-0.0081087,0,0,0.054216,0.37556,0,-0.021083,0,0,1.0798,0.014422,0,1.0799,-0.93532,-1.183,-1.2245,-88.123,-1.1143,0.27082,0.00094017,0.46,1,0
0.27428,0,0.56708,-1.2071,-0.88504,-1.1947,-0.0054312,0,0,-0.016139,0.40261,0,-0.014121,0,0,1.1037,0.0085162,0,1.1037,-0.88495,-1.2072,-1.1947,-89.034,-1.0957,0.31623,0.0016156,0.48,1,0
0.27333,0,0.54482,-1.2236,-0.85041,-1.167,-0.0047045,0,0,-0.073552,0.4116,0,-0.012232,0,0,1.1187,0.0051934,0,1.1187,-0.85035,-1.2237,-1.167,-89.278,-1.0803,0.34846,0.001981,0.5,1,0
0.27134,0,0.52233,-1.2331,-0.82255,-1.139,-0.0045008,0,0,-0.12234,0.41144,0,-0.011702,0,0,1.1278,0.0031908,0,1.1278,-0.8225,-1.2332,-1.139,-89.372,-1.0649,0.37265,0.0020967,0.52,1,0
0.26843,0,0.49971,-1.2397,-0.79855,-1.1112,-0.0044626,0,0,-0.1671,0.40643,0,-0.011603,0,0,1.1333,0.0019386,0,1.1333,-0.7985,-1.2398,-1.1112,-89.421,-1.0498,0.39308,0.0020313,0.54,1,0
0.26466,0,0.477,-1.2448,-0.7766,-1.0834,-0.0044315,0,0,-0.20982,0.39888,0,-0.011522,0,0,1.1366,0.001118,0,1.1366,-0.77656,-1.2449,-1.0834,-89.458,-1.035,0.41204,0.0018231,0.56,1,0
0.26004,0,0.45424,-1.2491,-0.7558,-1.0557,-0.0043738,0,0,-0.25143,0.3899,0,-0.011372,0,0,1.1384,0.00055631,0,1.1384,-0.75576,-1.2492,-1.0557,-89.492,-1.0202,0.43061,0.0014905,0.58,1,0
0.2546,0,0.43146,-1.2529,-0.73568,-1.028,-0.0042877,0,0,-0.29232,0.38006,0,-0.011148,0,0,1.1392,0.00015458,0,1.1392,-0.73564,-1.2529,-1.028,-89.525,-1.0055,0.44926,0.0010416,0.6,1,0
0.24835,0,0.40867,-1.2562,-0.71598,-1.0003,-0.0041792,0,0,-0.33266,0.36966,0,-0.010866,0,0,1.1393,-0.00014717,0,1.1393,-0.71595,-1.2563,-1.0003,-89.557,-0.99085,0.46814,0.00047996,0.62,1,0
0.24129,0,0.38589,-1.2591,-0.69659,-0.97261,-0.0040528,0,0,-0.37249,0.35883,0,-0.010537,0,0,1.1388,-0.00038757,0,1.1388,-0.69656,-1.2592,-0.97261,-89.587,-0.97611,0.48727,-0.00019223,0.64,1,0
0.23345,0,0.36312,-1.2616,-0.67743,-0.94485,-0.0039099,0,0,-0.41184,0.34764,0,-0.010166,0,0,1.1378,-0.00059344,0,1.1378,-0.6774,-1.2617,-0.94485,-89.617,-0.96131,0.50659,-0.00097327,0.66,1,0
0.22482,0,0.34038,-1.2637,-0.65848,-0.91703,-0.0037489,0,0,-0.45067,0.33612,0,-0.0097472,0,0,1.1364,-0.00078519,0,1.1364,-0.65846,-1.2637,-0.91703,-89.645,-0.9464,0.52603,-0.0018608,0.68,1,0
0.21542,0,0.31767,-1.2653,-0.63974,-0.88917,-0.0035656,0,0,-0.48893,0.32426,0,-0.0092705,0,0,1.1347,-0.00098025,0,1.1347,-0.63972,-1.2653,-0.88917,-89.673,-0.93139,0.54545,-0.0028512,0.7,1,0
0.20526,0,0.29499,-1.2663,-0.62122,-0.86124,-0.0033526,0,0,-0.52655,0.31203,0,-0.0087168,0,0,1.1325,-0.0011956,0,1.1325,-0.6212,-1.2663,-0.86124,-89.702,-0.91625,0.56473,-0.003939,0.72,1,0
0.19436,0,0.27237,-1.2666,-0.60296,-0.83325,-0.0030989,0,0,-0.5634,0.29937,0,-0.0080571,0,0,1.1298,-0.0014506,0,1.1298,-0.60295,-1.2667,-0.83325,-89.733,-0.90095,0.58368,-0.0051156,0.74,1,0
0.18273,0,0.2498,-1.2662,-0.58502,-0.80516,-0.002787,0,0,-0.59931,0.28618,0,-0.0072463,0,0,1.1265,-0.0017694,0,1.1265,-0.58501,-1.2662,-0.80516,-89.766,-0.88545,0.60208,-0.006368,0.76,1,0
0.17039,0,0.22731,-1.2647,-0.56749,-0.77695,-0.002389,0,0,-0.63402,0.2723,0,-0.0062113,0,0,1.1225,-0.0021865,0,1.1225,-0.56748,-1.2647,-0.77695,-89.804,-0.8697,0.6196,-0.0076763,0.78,1,0
0.15737,0,0.2049,-1.2617,-0.55048,-0.74857,-0.0018577,0,0,-0.66713,0.25751,0,-0.00483,0,0,1.1174,-0.0027547,0,1.1174,-0.55048,-1.2617,-0.74857,-89.85,-0.8536,0.63581,-0.0090098,0.8,1,0
0.1437,0,0.18261,-1.2569,-0.53419,-0.71993,-0.0011127,0,0,-0.69803,0.24146,0,-0.0028931,0,0,1.1109,-0.0035609,0,1.1109,-0.53419,-1.2569,-0.71993,-89.912,-0.837,0.65004,-0.01032,0.82,1,0
0.12944,0,0.16047,-1.2492,-0.51885,-0.69088,-1.8798e-05,0,0,-0.72581,0.22364,0,-4.8874e-05,0,0,1.1022,-0.0047576,0,1.1022,-0.51885,-1.2492,-0.69088,-89.999,-0.81964,0.66134,-0.011536,0.84,1,0
0.11467,0,0.13852,-1.2376,-0.50472,-0.66121,0.0016453,0,0,-0.74926,0.20344,0,0.0042777,0,0,1.0902,-0.0066293,0,1.0902,-0.50471,-1.2376,-0.66121,89.871,-0.80116,0.66849,-0.012554,0.86,1,0
0.099473,0,0.11686,-1.2207,-0.49177,-0.6306,0.0041252,0,0,-0.76712,0.18048,0,0.010726,0,0,1.0727,-0.0096884,0,1.0727,-0.49174,-1.2207,-0.6306,89.676,-0.78102,0.67042,-0.013266,0.88,1,0
0.083983,0,0.095615,-1.2015,-0.48051,-0.60023,0.0076067,0,0,-0.78168,0.15562,0,0.019777,0,0,1.0471,-0.015097,0,1.0472,-0.48043,-1.2016,-0.60023,89.396,-0.76075,0.66936,-0.013755,0.9,1,0
0.068206,0,0.074976,-1.1816,-0.46073,-0.56769,0.0090553,0,0,-0.79814,0.13904,0,0.023544,0,0,1.0122,-0.020644,0,1.0124,-0.46062,-1.1818,-0.56769,89.281,-0.73669,0.674,-0.014397,0.92,1,0
0.052058,0,0.055128,-1.1634,-0.42328,-0.53113,0.0099447,0,0,-0.82194,0.1402,0,0.025856,0,0,0.97111,-0.02356,0,0.97139,-0.42315,-1.1635,-0.53113,89.23,-0.70593,0.69273,-0.015684,0.94,1,0
0.035328,0,0.036131,-1.1485,-0.37504,-0.49319,0.0078802,0,0,-0.8519,0.1536,0,0.020489,0,0,0.93168,-0.019692,0,0.93189,-0.37495,-1.1486,-0.49319,89.416,-0.67224,0.72181,-0.01758,0.96,1,0
0.017982,0,0.01786,-1.1396,-0.33486,-0.46019,0.0052727,0,0,-0.8832,0.16293,0,0.013709,0,0,0.90328,-0.011126,0,0.90334,-0.33482,-1.1396,-0.46019,89.625,-0.64487,0.75001,-0.019643,0.98,1,0
0,0,0,-1.1155,-0.29739,-0.42385,1.2143e-17,0,0,-0.89908,0.1644,0,3.1225e-17,0,0,0.89301,-3.8164e-17,0,0.893,-0.29739,-1.1155,-0.42385,90,-0.61223,0.76273,-0.020694,1,1,0
